! Generated by EMerge - 4-port S-parameters
! File generated: 2026-02-28 10:00 
! --- Branch-Line Coupler 2000 MHz ---
! Substrate: RO4003C
! h = 0.508 mm
! W50 = 1.1 mm, W35 = 1.85 mm
! L35 = 22.2 mm, L50 = 22.2 mm
! L_feed = 5 mm
! Run time = 2.47 min
# GHZ S RI R 50
1.000000e-01    -4.858620e-01 1.532761e-02 4.875312e-01 -6.806281e-02 4.866253e-01 -7.653978e-02 4.855305e-01 -8.914153e-02
                4.875314e-01 -6.806304e-02 -4.858647e-01 1.531529e-02 4.855387e-01 -8.915345e-02 4.866159e-01 -7.651463e-02
                4.866200e-01 -7.653892e-02 4.855332e-01 -8.915221e-02 -4.858979e-01 1.540231e-02 4.875206e-01 -6.812487e-02
                4.855308e-01 -8.914171e-02 4.866161e-01 -7.651457e-02 4.875263e-01 -6.812580e-02 -4.858682e-01 1.536958e-02
1.661017e-01    -4.903180e-01 2.688689e-02 4.766530e-01 -1.114139e-01 4.741299e-01 -1.254653e-01 4.711369e-01 -1.463524e-01
                4.766531e-01 -1.114142e-01 -4.903263e-01 2.686700e-02 4.711406e-01 -1.463713e-01 4.741234e-01 -1.254231e-01
                4.741247e-01 -1.254639e-01 4.711354e-01 -1.463693e-01 -4.903618e-01 2.701519e-02 4.766161e-01 -1.115110e-01
                4.711372e-01 -1.463527e-01 4.741236e-01 -1.254230e-01 4.766216e-01 -1.115125e-01 -4.903368e-01 2.696075e-02
2.322034e-01    -4.964203e-01 4.048293e-02 4.609528e-01 -1.524484e-01 4.559722e-01 -1.720284e-01 4.501210e-01 -2.011340e-01
                4.609528e-01 -1.524489e-01 -4.964369e-01 4.045624e-02 4.501183e-01 -2.011585e-01 4.559702e-01 -1.719686e-01
                4.559672e-01 -1.720265e-01 4.501135e-01 -2.011558e-01 -4.964741e-01 4.067062e-02 4.608787e-01 -1.525723e-01
                4.501213e-01 -2.011344e-01 4.559704e-01 -1.719684e-01 4.608841e-01 -1.525743e-01 -4.964562e-01 4.059441e-02
2.983051e-01    -5.035406e-01 5.671657e-02 4.410346e-01 -1.904523e-01 4.327066e-01 -2.154877e-01 4.230104e-01 -2.527148e-01
                4.410345e-01 -1.904530e-01 -5.035679e-01 5.668402e-02 4.229997e-01 -2.527433e-01 4.327111e-01 -2.154095e-01
                4.327019e-01 -2.154853e-01 4.229953e-01 -2.527399e-01 -5.036042e-01 5.697087e-02 4.409151e-01 -1.905919e-01
                4.230106e-01 -2.527153e-01 4.327115e-01 -2.154093e-01 4.409201e-01 -1.905945e-01 -5.035959e-01 5.687284e-02
3.644068e-01    -5.109218e-01 7.601168e-02 4.176223e-01 -2.248831e-01 4.049892e-01 -2.552629e-01 3.904248e-01 -3.004794e-01
                4.176221e-01 -2.248838e-01 -5.109619e-01 7.597423e-02 3.904048e-01 -3.005098e-01 4.050028e-01 -2.551657e-01
                4.049849e-01 -2.552600e-01 3.904009e-01 -3.005058e-01 -5.109922e-01 7.634051e-02 4.174518e-01 -2.250257e-01
                3.904249e-01 -3.004800e-01 4.050032e-01 -2.551655e-01 4.174565e-01 -2.250287e-01 -5.109964e-01 7.622063e-02
4.305085e-01    -5.177290e-01 9.859872e-02 3.915085e-01 -2.553841e-01 3.735252e-01 -2.909447e-01 3.530232e-01 -3.439768e-01
                3.915081e-01 -2.553849e-01 -5.177840e-01 9.855728e-02 3.529933e-01 -3.440068e-01 3.735508e-01 -2.908278e-01
                3.735212e-01 -2.909414e-01 3.529900e-01 -3.440023e-01 -5.178007e-01 9.900991e-02 3.912847e-01 -2.555158e-01
                3.530232e-01 -3.439774e-01 3.735512e-01 -2.908276e-01 3.912890e-01 -2.555192e-01 -5.178202e-01 9.886822e-02
4.966102e-01    -5.230971e-01 1.245137e-01 3.635063e-01 -2.817838e-01 3.390190e-01 -3.222873e-01 3.114538e-01 -3.829111e-01
                3.635059e-01 -2.817847e-01 -5.231689e-01 1.244691e-01 3.114137e-01 -3.829383e-01 3.390602e-01 -3.221503e-01
                3.390154e-01 -3.222837e-01 3.114110e-01 -3.829333e-01 -5.231617e-01 1.250143e-01 3.632304e-01 -2.818904e-01
                3.114537e-01 -3.829118e-01 3.390607e-01 -3.221502e-01 3.632343e-01 -2.818941e-01 -5.231999e-01 1.248509e-01
5.627119e-01    -5.261708e-01 1.536091e-01 3.344091e-01 -3.040820e-01 3.021327e-01 -3.491876e-01 2.663115e-01 -4.171180e-01
                3.344085e-01 -3.040829e-01 -5.262617e-01 1.535617e-01 2.662614e-01 -4.171398e-01 3.021936e-01 -3.490305e-01
                3.021295e-01 -3.491837e-01 2.662595e-01 -4.171344e-01 -5.262177e-01 1.542044e-01 3.340854e-01 -3.041496e-01
                2.663113e-01 -4.171188e-01 3.021941e-01 -3.490304e-01 3.340889e-01 -3.041536e-01 -5.262781e-01 1.540196e-01
6.288136e-01    -5.261347e-01 1.855705e-01 3.049600e-01 -3.224296e-01 2.634540e-01 -3.716543e-01 2.181061e-01 -4.465311e-01
                3.049593e-01 -3.224306e-01 -5.262473e-01 1.855208e-01 2.180468e-01 -4.465449e-01 2.635392e-01 -3.714776e-01
                2.634513e-01 -3.716502e-01 2.180457e-01 -4.465392e-01 -5.261513e-01 1.862637e-01 3.045958e-01 -3.224454e-01
                2.181057e-01 -4.465319e-01 2.635398e-01 -3.714776e-01 3.045989e-01 -3.224497e-01 -5.262378e-01 1.860582e-01
6.949153e-01    -5.222329e-01 2.199362e-01 2.758318e-01 -3.371061e-01 2.234771e-01 -3.897715e-01 1.672417e-01 -4.711419e-01
                2.758309e-01 -3.371070e-01 -5.223700e-01 2.198843e-01 1.671746e-01 -4.711452e-01 2.235920e-01 -3.895764e-01
                2.234749e-01 -3.897671e-01 1.671743e-01 -4.711393e-01 -5.222048e-01 2.207278e-01 2.754375e-01 -3.370588e-01
                1.672412e-01 -4.711426e-01 2.235926e-01 -3.895763e-01 2.754403e-01 -3.370631e-01 -5.223218e-01 2.205025e-01
7.610169e-01    -5.137790e-01 2.561123e-01 2.476166e-01 -3.484985e-01 1.825938e-01 -4.036599e-01 1.140088e-01 -4.909564e-01
                2.476156e-01 -3.484994e-01 -5.139446e-01 2.560586e-01 1.139357e-01 -4.909470e-01 1.827442e-01 -4.034483e-01
                1.825922e-01 -4.036554e-01 1.139362e-01 -4.909411e-01 -5.136912e-01 2.569998e-01 2.472051e-01 -3.483788e-01
                1.140082e-01 -4.909572e-01 1.827449e-01 -4.034483e-01 2.472074e-01 -3.483833e-01 -5.138435e-01 2.567560e-01
8.271186e-01    -5.001617e-01 2.933829e-01 2.208209e-01 -3.570866e-01 1.410955e-01 -4.134378e-01 5.858524e-02 -5.059513e-01
                2.208197e-01 -3.570875e-01 -5.003606e-01 2.933276e-01 5.850863e-02 -5.059270e-01 1.412876e-01 -4.132128e-01
                1.410943e-01 -4.134332e-01 5.851001e-02 -5.059211e-01 -4.999989e-01 2.943603e-01 2.204071e-01 -3.568877e-01
                5.858448e-02 -5.059521e-01 1.412883e-01 -4.132129e-01 2.204091e-01 -3.568923e-01 -5.001915e-01 2.941000e-01
8.932203e-01    -4.808473e-01 3.309097e-01 1.958635e-01 -3.634349e-01 9.918393e-02 -4.191830e-01 1.048749e-03 -5.160281e-01
                1.958621e-01 -3.634357e-01 -4.810856e-01 3.308541e-01 9.716707e-04 -5.159872e-01 9.942465e-02 -4.189489e-01
                9.918334e-02 -4.191783e-01 9.739154e-04 -5.159814e-01 -4.805944e-01 3.319676e-01 1.954643e-01 -3.631532e-01
                1.047862e-03 -5.160288e-01 9.942542e-02 -4.189491e-01 1.954660e-01 -3.631578e-01 -4.808331e-01 3.316937e-01
9.593220e-01    -4.553854e-01 3.677229e-01 1.730717e-01 -3.681941e-01 5.699302e-02 -4.208945e-01 -5.860051e-02 -5.209673e-01
                1.730702e-01 -3.681949e-01 -4.556707e-01 3.676692e-01 -5.867441e-02 -5.209086e-01 5.728951e-02 -4.206574e-01
                5.699300e-02 -4.208899e-01 -5.867128e-02 -5.209030e-01 -4.550286e-01 3.688482e-01 1.727055e-01 -3.678291e-01
                -5.860153e-02 -5.209679e-01 5.729028e-02 -4.206577e-01 1.727069e-01 -3.678338e-01 -4.553193e-01 3.685644e-01
1.025424e+00    -4.234241e-01 4.027000e-01 1.526696e-01 -3.721107e-01 1.462106e-02 -4.184563e-01 -1.204041e-01 -5.203812e-01
                1.526679e-01 -3.721115e-01 -4.237654e-01 4.026520e-01 -1.204705e-01 -5.203041e-01 1.498068e-02 -4.182242e-01
                1.462163e-02 -4.184517e-01 -1.204665e-01 -5.202989e-01 -4.229517e-01 4.038759e-01 1.523556e-01 -3.716657e-01
                -1.204052e-01 -5.203818e-01 1.498141e-02 -4.182247e-01 1.523568e-01 -3.716704e-01 -4.233008e-01 4.035873e-01
1.091525e+00    -3.847419e-01 4.345363e-01 1.347519e-01 -3.760433e-01 -2.782052e-02 -4.116016e-01 -1.843913e-01 -5.136659e-01
                1.347500e-01 -3.760440e-01 -3.851496e-01 4.345007e-01 -1.844453e-01 -5.135708e-01 -2.739054e-02 -4.113851e-01
                -2.781934e-02 -4.115972e-01 -1.844404e-01 -5.135660e-01 -3.841449e-01 4.357423e-01 1.345097e-01 -3.755261e-01
                -1.843926e-01 -5.136664e-01 -2.738988e-02 -4.113857e-01 1.345107e-01 -3.755309e-01 -3.845586e-01 4.354557e-01
1.157627e+00    -3.393056e-01 4.617108e-01 1.192353e-01 -3.809810e-01 -7.013606e-02 -3.998830e-01 -2.504992e-01 -4.999558e-01
                1.192332e-01 -3.809816e-01 -3.397910e-01 4.616977e-01 -2.505355e-01 -4.998441e-01 -6.962916e-02 -3.996958e-01
                -7.013426e-02 -3.998789e-01 -2.505297e-01 -4.998400e-01 -3.385788e-01 4.629232e-01 1.190839e-01 -3.804043e-01
                -2.505006e-01 -4.999561e-01 -6.962861e-02 -3.996965e-01 1.190848e-01 -3.804092e-01 -3.390634e-01 4.626470e-01
1.223729e+00    -2.873672e-01 4.824586e-01 1.057757e-01 -3.880517e-01 -1.119432e-01 -3.826577e-01 -3.184561e-01 -4.780901e-01
                1.057734e-01 -3.880523e-01 -2.879419e-01 4.824831e-01 -3.184689e-01 -4.779652e-01 -1.113543e-01 -3.825171e-01
                -1.119407e-01 -3.826539e-01 -3.184622e-01 -4.779618e-01 -2.865107e-01 4.836506e-01 1.057325e-01 -3.874337e-01
                -3.184577e-01 -4.780903e-01 -1.113539e-01 -3.825178e-01 1.057334e-01 -3.874387e-01 -2.870717e-01 4.833957e-01
1.289831e+00    -2.296112e-01 4.947715e-01 9.364427e-02 -3.985004e-01 -1.525300e-01 -3.591070e-01 -3.876174e-01 -4.466121e-01
                9.364165e-02 -3.985008e-01 -2.302854e-01 4.948547e-01 -3.876010e-01 -4.464794e-01 -1.518569e-01 -3.590345e-01
                -1.525269e-01 -3.591037e-01 -3.875936e-01 -4.464770e-01 -2.286319e-01 4.959142e-01 9.372340e-02 -3.978647e-01
                -3.876191e-01 -4.466122e-01 -1.518567e-01 -3.590353e-01 9.372415e-02 -3.978700e-01 -2.292732e-01 4.956938e-01
1.355932e+00    -1.673562e-01 4.964643e-01 8.155881e-02 -4.135987e-01 -1.906715e-01 -3.283277e-01 -4.567492e-01 -4.038367e-01
                8.155588e-02 -4.135989e-01 -1.681362e-01 4.966344e-01 -4.566990e-01 -4.037041e-01 -1.899167e-01 -3.283491e-01
                -1.906679e-01 -3.283250e-01 -4.566909e-01 -4.037028e-01 -1.662689e-01 4.975282e-01 8.176892e-02 -4.129746e-01
                -4.567511e-01 -4.038366e-01 -1.899168e-01 -3.283499e-01 8.176959e-02 -4.129803e-01 -1.669921e-01 4.973580e-01
1.422034e+00    -1.027920e-01 4.853643e-01 6.749573e-02 -4.344330e-01 -2.244284e-01 -2.895470e-01 -5.237792e-01 -3.480431e-01
                6.749247e-02 -4.344329e-01 -1.036769e-01 4.856568e-01 -5.236924e-01 -3.479214e-01 -2.236016e-01 -2.896923e-01
                -2.244242e-01 -2.895452e-01 -5.236838e-01 -3.479214e-01 -1.016215e-01 4.863215e-01 6.783736e-02 -4.338544e-01
                -5.237812e-01 -3.480428e-01 -2.236019e-01 -2.896930e-01 6.783789e-02 -4.338607e-01 -1.024247e-01 4.862194e-01
1.488136e+00    -3.918577e-02 4.596901e-01 4.855478e-02 -4.615080e-01 -2.510009e-01 -2.425242e-01 -5.855816e-01 -2.778579e-01
                4.855118e-02 -4.615075e-01 -4.016255e-02 4.601461e-01 -5.854594e-01 -2.777604e-01 -2.501223e-01 -2.428252e-01
                -2.509963e-01 -2.425233e-01 -5.854504e-01 -2.777620e-01 -3.796739e-02 4.605181e-01 4.901768e-02 -4.610108e-01
                -5.855836e-01 -2.778574e-01 -2.501229e-01 -2.428257e-01 4.901792e-02 -4.610178e-01 -3.884360e-02 4.605029e-01
1.554237e+00    1.909198e-02 4.186523e-01 2.102987e-02 -4.941432e-01 -2.667923e-01 -1.881597e-01 -6.379441e-01 -1.928610e-01
                2.102597e-02 -4.941422e-01 1.805290e-02 4.193142e-01 -6.377932e-01 -1.928023e-01 -2.658953e-01 -1.886468e-01
                -2.667876e-01 -1.881601e-01 -6.377841e-01 -1.928056e-01 2.031283e-02 4.193385e-01 2.159110e-02 -4.937609e-01
                -6.379462e-01 -1.928602e-01 -2.658961e-01 -1.886469e-01 2.159082e-02 -4.937688e-01 1.937617e-02 4.194283e-01
1.620339e+00    6.693424e-02 3.631861e-01 -1.909473e-02 -5.297672e-01 -2.679007e-01 -1.292077e-01 -6.759300e-01 -9.432307e-02
                -1.909883e-02 -5.297654e-01 6.588215e-02 3.640897e-01 -6.757645e-01 -9.431619e-02 -2.670332e-01 -1.299033e-01
                -2.678962e-01 -1.292093e-01 -6.757557e-01 -9.432124e-02 6.810498e-02 3.637332e-01 -1.847039e-02 -5.295247e-01
                -6.759322e-01 -9.432197e-02 -2.670342e-01 -1.299028e-01 -1.847155e-02 -5.295336e-01 6.712625e-02 3.639429e-01
1.686441e+00    9.942261e-02 2.965050e-01 -7.505893e-02 -5.634436e-01 -2.512025e-01 -7.075416e-02 -6.948001e-01 1.423677e-02
                -7.506303e-02 -5.634409e-01 9.842488e-02 2.976686e-01 -6.946412e-01 1.418438e-02 -2.504254e-01 -7.166538e-02
                -2.511987e-01 -7.075713e-02 -6.946331e-01 1.417754e-02 1.004897e-01 2.969350e-01 -7.441475e-02 -5.633512e-01
                -6.948023e-01 1.423822e-02 -2.504262e-01 -7.166420e-02 -7.441724e-02 -5.633610e-01 9.949137e-02 2.972735e-01
1.752542e+00    1.131748e-01 2.239856e-01 -1.477993e-01 -5.881526e-01 -2.158807e-01 -1.993815e-02 -6.913581e-01 1.271620e-01
                -1.478032e-01 -5.881490e-01 1.123084e-01 2.253998e-01 -6.912315e-01 1.270529e-01 -2.152605e-01 -2.104942e-02
                -2.158779e-01 -1.994225e-02 -6.912244e-01 1.270443e-01 1.140922e-01 2.243408e-01 -1.471784e-01 -5.882027e-01
                -6.913602e-01 1.271638e-01 -2.152609e-01 -2.104751e-02 -1.471827e-01 -5.882132e-01 1.130978e-01 2.248097e-01
1.818644e+00    1.075003e-01 1.520639e-01 -2.346305e-01 -5.961892e-01 -1.647429e-01 1.544806e-02 -6.651036e-01 2.377592e-01
                -2.346337e-01 -5.961846e-01 1.068365e-01 1.536873e-01 -6.650340e-01 2.376088e-01 -1.643414e-01 1.417766e-02
                -1.647416e-01 1.544320e-02 -6.650284e-01 2.375988e-01 1.082382e-01 1.524029e-01 -2.340660e-01 -5.963585e-01
                -6.651055e-01 2.377614e-01 -1.643411e-01 1.418023e-02 -2.340726e-01 -5.963693e-01 1.072683e-01 1.529974e-01
1.884746e+00    8.454783e-02 8.648207e-02 -3.290259e-01 -5.813720e-01 -1.044366e-01 2.917102e-02 -6.183792e-01 3.400488e-01
                -3.290283e-01 -5.813666e-01 8.413631e-02 8.824640e-02 -6.183833e-01 3.398841e-01 -1.042994e-01 2.780431e-02
                -1.044371e-01 2.916596e-02 -6.183794e-01 3.398730e-01 8.509841e-02 8.687193e-02 -3.285343e-01 -5.816303e-01
                -6.183810e-01 3.400513e-01 -1.042980e-01 2.780730e-02 -3.285434e-01 -5.816407e-01 8.416880e-02 8.758433e-02
1.950847e+00    4.818124e-02 3.089056e-02 -4.218917e-01 -5.410513e-01 -4.416795e-02 1.856577e-02 -5.552447e-01 4.301586e-01
                -4.218929e-01 -5.410454e-01 4.803897e-02 3.271513e-02 -5.553250e-01 4.300134e-01 -4.431607e-02 1.717827e-02
                -4.417018e-02 1.856113e-02 -5.553230e-01 4.300015e-01 4.855909e-02 3.139752e-02 -4.214735e-01 -5.413728e-01
                -5.552462e-01 4.301614e-01 -4.431343e-02 1.718130e-02 -4.214850e-01 -5.413820e-01 4.768135e-02 3.222094e-02
2.016949e+00    2.291985e-03 -1.331983e-02 -5.037808e-01 -4.769358e-01 6.521054e-03 -1.464060e-02 -4.797896e-01 5.064892e-01
                -5.037807e-01 -4.769298e-01 2.402918e-03 -1.151041e-02 -4.799329e-01 5.063960e-01 6.092814e-03 -1.597194e-02
                6.517330e-03 -1.464420e-02 -4.799329e-01 5.063837e-01 2.531338e-03 -1.263736e-02 -5.034281e-01 -4.773073e-01
                -4.797907e-01 5.064924e-01 6.096797e-03 -1.596931e-02 -5.034418e-01 -4.773146e-01 1.716417e-03 -1.170697e-02
2.083051e+00    -5.032040e-02 -4.602334e-02 -5.670250e-01 -3.945465e-01 3.989116e-02 -6.488181e-02 -3.950148e-01 5.687166e-01
                -5.670236e-01 -3.945407e-01 -4.999644e-02 -4.428532e-02 -3.951946e-01 5.686989e-01 3.921114e-02 -6.608822e-02
                3.988641e-02 -6.488391e-02 -3.951966e-01 5.686865e-01 -5.016990e-02 -4.511928e-02 -5.667328e-01 -3.949677e-01
                -3.950157e-01 5.687200e-01 3.921635e-02 -6.608646e-02 -5.667480e-01 -3.949725e-01 -5.090774e-02 -4.408444e-02
2.149153e+00    -1.079229e-01 -6.709377e-02 -6.071107e-01 -3.018048e-01 5.138326e-02 -1.241709e-01 -3.028588e-01 6.165249e-01
                -6.071083e-01 -3.017997e-01 -1.074367e-01 -6.545820e-02 -3.030408e-01 6.165925e-01 5.049697e-02 -1.251981e-01
                5.137808e-02 -1.241713e-01 -3.030448e-01 6.165803e-01 -1.078001e-01 -6.593734e-02 -6.068849e-01 -3.022822e-01
                -3.028593e-01 6.165286e-01 5.050314e-02 -1.251976e-01 -6.069010e-01 -3.022843e-01 -1.084415e-01 -6.480324e-02
2.215254e+00    -1.689934e-01 -7.577028e-02 -6.231798e-01 -2.073417e-01 4.011847e-02 -1.837969e-01 -2.050534e-01 6.489705e-01
                -6.231765e-01 -2.073374e-01 -1.683933e-01 -7.424480e-02 -2.052032e-01 6.491177e-01 3.908192e-02 -1.846083e-01
                4.011351e-02 -1.837955e-01 -2.052092e-01 6.491061e-01 -1.688295e-01 -7.434880e-02 -6.230391e-01 -2.078785e-01
                -2.050533e-01 6.489743e-01 3.908866e-02 -1.846094e-01 -6.230554e-01 -2.078778e-01 -1.693517e-01 -7.312793e-02
2.281356e+00    -2.313264e-01 -7.094413e-02 -6.177618e-01 -1.188853e-01 8.629875e-03 -2.359384e-01 -1.040185e-01 6.647657e-01
                -6.177580e-01 -1.188821e-01 -2.306496e-01 -6.952010e-02 -1.041083e-01 6.649738e-01 7.503048e-03 -2.365160e-01
                8.625708e-03 -2.359354e-01 -1.041162e-01 6.649631e-01 -2.310504e-01 -6.926540e-02 -6.177332e-01 -1.194730e-01
                -1.040179e-01 6.647697e-01 7.509891e-03 -2.365187e-01 -6.177489e-01 -1.194696e-01 -2.314320e-01 -6.798012e-02
2.347458e+00    -2.917484e-01 -5.199958e-02 -5.958548e-01 -4.200005e-02 -3.805684e-02 -2.749257e-01 -3.148979e-03 6.631163e-01
                -5.958509e-01 -4.199784e-02 -2.910181e-01 -5.066111e-02 -3.161856e-03 6.633586e-01 -3.921588e-02 -2.752687e-01
                -3.805977e-02 -2.749216e-01 -3.171401e-03 6.633491e-01 -2.912941e-01 -5.009238e-02 -5.959644e-01 -4.261436e-02
                -3.147850e-03 6.631204e-01 -3.920936e-02 -2.752730e-01 -5.959791e-01 -4.260873e-02 -2.915205e-01 -4.877411e-02
2.413559e+00    -3.465713e-01 -1.956035e-02 -5.635753e-01 2.054755e-02 -9.377028e-02 -2.978741e-01 9.363445e-02 6.444643e-01
                -5.635715e-01 2.054884e-02 -3.457981e-01 -1.829202e-02 9.370331e-02 6.447119e-01 -9.491011e-02 -2.979960e-01
                -9.377173e-02 -2.978693e-01 9.369234e-02 6.447039e-01 -3.458842e-01 -1.747171e-02 -5.638401e-01 1.994387e-02
                9.363616e-02 6.444683e-01 -9.490429e-02 -2.980017e-01 -5.638534e-01 1.995127e-02 -3.459520e-01 -1.615691e-02
2.479661e+00    -3.924211e-01 2.431622e-02 -5.267860e-01 6.865907e-02 -1.525616e-01 -3.045554e-01 1.827076e-01 6.106801e-01
                -5.267825e-01 6.865959e-02 -3.916075e-01 2.552469e-02 1.828525e-01 6.109069e-01 -1.536404e-01 -3.044796e-01
                -1.525615e-01 -3.045504e-01 1.828404e-01 6.109005e-01 -3.914641e-01 2.652674e-02 -5.272081e-01 6.811002e-02
                1.827099e-01 6.106840e-01 -1.536355e-01 -3.044865e-01 -5.272198e-01 6.811869e-02 -3.913816e-01 2.780192e-02
2.545763e+00    -4.269414e-01 7.651863e-02 -4.901191e-01 1.041792e-01 -2.096752e-01 -2.966751e-01 2.614379e-01 5.646839e-01
                -4.901160e-01 1.041792e-01 -4.260864e-01 7.767102e-02 2.616462e-01 5.648698e-01 -2.106616e-01 -2.964308e-01
                -2.096736e-01 -2.966704e-01 2.616333e-01 5.648653e-01 -4.256964e-01 7.878600e-02 -4.906851e-01 1.037282e-01
                2.614408e-01 5.646876e-01 -2.106579e-01 -2.964387e-01 -4.906953e-01 1.037377e-01 -4.254826e-01 7.999043e-02
2.611864e+00    -4.490789e-01 1.335341e-01 -4.565865e-01 1.299537e-01 -2.619336e-01 -2.769347e-01 3.284635e-01 5.097963e-01
                -4.565839e-01 1.299532e-01 -4.481825e-01 1.346287e-01 3.287188e-01 5.099284e-01 -2.628063e-01 -2.765532e-01
                -2.619307e-01 -2.769305e-01 3.287053e-01 5.099256e-01 -4.475462e-01 1.357944e-01 -4.572698e-01 1.296374e-01
                3.284669e-01 5.097997e-01 -2.628038e-01 -2.765617e-01 -4.572787e-01 1.296474e-01 -4.472271e-01 1.369049e-01
2.677966e+00    -4.589688e-01 1.920433e-01 -4.276823e-01 1.490191e-01 -3.076289e-01 -2.482271e-01 3.835703e-01 4.491495e-01
                -4.276801e-01 1.490185e-01 -4.580334e-01 1.930751e-01 3.838555e-01 4.492208e-01 -3.083745e-01 -2.477392e-01
                -3.076249e-01 -2.482239e-01 3.838419e-01 4.492199e-01 -4.571636e-01 1.942385e-01 -4.284477e-01 1.488646e-01
                3.835742e-01 4.491525e-01 -3.083733e-01 -2.477482e-01 -4.284554e-01 1.488748e-01 -4.567688e-01 1.952406e-01
2.744068e+00    -4.576006e-01 2.492831e-01 -4.037455e-01 1.640912e-01 -3.461545e-01 -2.131319e-01 4.273532e-01 3.853306e-01
                -4.037437e-01 1.640905e-01 -4.566325e-01 2.502457e-01 4.276527e-01 3.853396e-01 -3.467661e-01 -2.125665e-01
                -3.461496e-01 -2.131298e-01 4.276391e-01 3.853405e-01 -4.555498e-01 2.513638e-01 -4.045533e-01 1.641143e-01
                4.273577e-01 3.853331e-01 -3.467661e-01 -2.125757e-01 -4.045600e-01 1.641247e-01 -4.551095e-01 2.522515e-01
2.810169e+00    -4.464537e-01 3.031723e-01 -3.843701e-01 1.773396e-01 -3.775900e-01 -1.736990e-01 4.608454e-01 3.202654e-01
                -3.843686e-01 1.773388e-01 -4.454619e-01 3.040601e-01 4.611457e-01 3.202141e-01 -3.780651e-01 -1.730825e-01
                -3.775844e-01 -1.736980e-01 4.611323e-01 3.202166e-01 -4.441916e-01 3.050992e-01 -3.851795e-01 1.775459e-01
                4.608503e-01 3.202675e-01 -3.780663e-01 -1.730918e-01 -3.851854e-01 1.775562e-01 -4.437345e-01 3.058735e-01
2.876271e+00    -4.272031e-01 3.522778e-01 -3.687435e-01 1.903584e-01 -4.023572e-01 -1.314299e-01 4.852201e-01 2.552630e-01
                -3.687423e-01 1.903577e-01 -4.261996e-01 3.530867e-01 4.855103e-01 2.551555e-01 -4.026968e-01 -1.307867e-01
                -4.023511e-01 -1.314302e-01 4.854972e-01 2.551596e-01 -4.247691e-01 3.540212e-01 -3.695151e-01 1.907443e-01
                4.852254e-01 2.552644e-01 -4.026992e-01 -1.307959e-01 -3.695203e-01 1.907546e-01 -4.243211e-01 3.546886e-01
2.942373e+00    -4.015291e-01 3.957049e-01 -3.558787e-01 2.042356e-01 -4.209838e-01 -8.736106e-02 5.015958e-01 1.911374e-01
                -3.558777e-01 2.042350e-01 -4.005273e-01 3.964334e-01 5.018673e-01 1.909791e-01 -4.211913e-01 -8.671331e-02
                -4.209775e-01 -8.736267e-02 5.018547e-01 1.909847e-01 -3.989646e-01 3.972447e-01 -3.565760e-01 2.047898e-01
                5.016015e-01 1.911382e-01 -4.211947e-01 -8.672242e-02 -3.565807e-01 2.048002e-01 -3.985486e-01 3.978161e-01
3.008475e+00    -3.710128e-01 4.329744e-01 -3.447518e-01 2.196528e-01 -4.339627e-01 -4.217991e-02 5.109305e-01 1.283481e-01
                -3.447509e-01 2.196522e-01 -3.700271e-01 4.336234e-01 5.111769e-01 1.281448e-01 -4.340433e-01 -4.154855e-02
                -4.339564e-01 -4.218289e-02 5.111650e-01 1.281518e-01 -3.683600e-01 4.342990e-01 -3.453421e-01 2.203576e-01
                5.109365e-01 1.283481e-01 -4.340479e-01 -4.155743e-02 -3.453466e-01 2.203681e-01 -3.679956e-01 4.347882e-01
3.074576e+00    -3.370935e-01 4.639140e-01 -3.343728e-01 2.369785e-01 -4.416810e-01 3.660651e-03 5.139798e-01 6.712692e-02
                -3.343718e-01 2.369780e-01 -3.361384e-01 4.644872e-01 5.141966e-01 6.688451e-02 -4.416420e-01 4.255777e-03
                -4.416748e-01 3.656289e-03 5.141856e-01 6.689291e-02 -3.343940e-01 4.650195e-01 -3.348278e-01 2.378109e-01
                5.139860e-01 6.712611e-02 -4.416476e-01 4.247193e-03 -3.348320e-01 2.378216e-01 -3.340975e-01 4.654431e-01
3.140678e+00    -3.010604e-01 4.885771e-01 -3.238144e-01 2.563422e-01 -4.443943e-01 4.984491e-02 5.112946e-01 7.583297e-03
                -3.238134e-01 2.563416e-01 -3.001498e-01 4.890805e-01 5.114791e-01 7.307262e-03 -4.442449e-01 5.038460e-02
                -4.443883e-01 4.983914e-02 5.114689e-01 7.316941e-03 -2.983538e-01 4.894667e-01 -3.241107e-01 2.572747e-01
                5.113010e-01 7.581528e-03 -4.442517e-01 5.037640e-02 -3.241147e-01 2.572857e-01 -2.981389e-01 4.898429e-01
3.206780e+00    -2.640600e-01 5.071881e-01 -3.122212e-01 2.776845e-01 -4.422279e-01 9.611641e-02 5.032417e-01 -5.021542e-02
                -3.122201e-01 2.776838e-01 -2.632069e-01 5.076299e-01 5.033922e-01 -5.052027e-02 -4.419798e-01 9.658192e-02
                -4.422224e-01 9.610920e-02 5.033831e-01 -5.050937e-02 -2.613832e-01 5.078713e-01 -3.123404e-01 2.786860e-01
                5.032481e-01 -5.021827e-02 -4.419877e-01 9.657420e-02 -3.123443e-01 2.786972e-01 -2.612607e-01 5.082198e-01
3.272881e+00    -2.271068e-01 5.201091e-01 -2.988093e-01 3.007888e-01 -4.351931e-01 1.422176e-01 4.900360e-01 -1.061828e-01
                -2.988080e-01 3.007878e-01 -2.263228e-01 5.204985e-01 4.901524e-01 -1.065126e-01 -4.348609e-01 1.425906e-01
                -4.351882e-01 1.422090e-01 4.901445e-01 -1.065006e-01 -2.244933e-01 5.206005e-01 -2.987387e-01 3.018248e-01
                4.900423e-01 -1.061869e-01 -4.348699e-01 1.425835e-01 -2.987426e-01 3.018365e-01 -2.244719e-01 5.209421e-01
3.338983e+00    -1.910894e-01 5.278216e-01 -2.828670e-01 3.252979e-01 -4.232129e-01 1.878442e-01 4.717819e-01 -1.601686e-01
                -2.828655e-01 3.252964e-01 -1.903847e-01 5.281688e-01 4.718651e-01 -1.605211e-01 -4.228148e-01 1.881067e-01
                -4.232087e-01 1.878340e-01 4.718585e-01 -1.605079e-01 -1.885682e-01 5.281403e-01 -2.826003e-01 3.263314e-01
                4.717879e-01 -1.601741e-01 -4.228251e-01 1.881003e-01 -2.826042e-01 3.263437e-01 -1.886546e-01 5.284971e-01
3.405085e+00    -1.567675e-01 5.309184e-01 -2.637590e-01 3.507220e-01 -4.061532e-01 2.326114e-01 4.485196e-01 -2.119278e-01
                -2.637573e-01 3.507198e-01 -1.561509e-01 5.312328e-01 4.485715e-01 -2.123025e-01 -4.057121e-01 2.327463e-01
                -4.061498e-01 2.325995e-01 4.485665e-01 -2.122884e-01 -1.543624e-01 5.310860e-01 -2.632967e-01 3.517143e-01
                4.485251e-01 -2.119349e-01 -4.057237e-01 2.327408e-01 -2.633008e-01 3.517272e-01 -1.545623e-01 5.314814e-01
3.471186e+00    -1.247560e-01 5.300967e-01 -2.409356e-01 3.764433e-01 -3.838562e-01 2.760315e-01 4.202780e-01 -2.611019e-01
                -2.409337e-01 3.764400e-01 -1.242361e-01 5.303856e-01 4.203016e-01 -2.615017e-01 -3.834010e-01 2.760229e-01
                -3.838538e-01 2.760179e-01 4.202982e-01 -2.614865e-01 -1.224855e-01 5.301359e-01 -2.402860e-01 3.773547e-01
                4.202825e-01 -2.611109e-01 -3.834142e-01 2.760185e-01 -2.402904e-01 3.773684e-01 -1.228044e-01 5.305948e-01
3.537288e+00    -9.549598e-02 5.261488e-01 -2.139442e-01 4.017218e-01 -3.561738e-01 3.175032e-01 3.871358e-01 -3.072148e-01
                -2.139423e-01 4.017168e-01 -9.508256e-02 5.264148e-01 3.871348e-01 -3.076470e-01 -3.557416e-01 3.173367e-01
                -3.561726e-01 3.174874e-01 3.871334e-01 -3.076309e-01 -9.337262e-02 5.260801e-01 -2.131246e-01 4.025128e-01
                3.871389e-01 -3.072259e-01 -3.557565e-01 3.173339e-01 -2.131296e-01 4.025275e-01 -9.381775e-02 5.266303e-01
3.603390e+00    -6.920542e-02 5.199417e-01 -1.824359e-01 4.257055e-01 -3.229907e-01 3.563107e-01 3.492951e-01 -3.496842e-01
                -1.824343e-01 4.256979e-01 -6.891366e-02 5.201793e-01 3.492733e-01 -3.501641e-01 -3.226302e-01 3.559749e-01
                -3.229908e-01 3.562924e-01 3.492743e-01 -3.501470e-01 -6.723695e-02 5.197791e-01 -1.814736e-01 4.263384e-01
                3.492958e-01 -3.496979e-01 -3.226470e-01 3.559741e-01 -1.814797e-01 4.263542e-01 -6.782079e-02 5.204537e-01
3.669492e+00    -4.580068e-02 5.123787e-01 -1.461469e-01 4.474440e-01 -2.842191e-01 3.916323e-01 3.071781e-01 -3.878568e-01
                -1.461462e-01 4.474326e-01 -4.565934e-02 5.125679e-01 3.071386e-01 -3.884133e-01 -2.839976e-01 3.911196e-01
                -2.842208e-01 3.916106e-01 3.071426e-01 -3.883951e-01 -4.399270e-02 5.121221e-01 -1.450814e-01 4.478844e-01
                3.071750e-01 -3.878737e-01 -2.840169e-01 3.911216e-01 -1.450895e-01 4.479019e-01 -4.473932e-02 5.129650e-01
3.735593e+00    -2.474476e-02 5.043244e-01 -1.048050e-01 4.658932e-01 -2.397132e-01 4.225399e-01 2.615900e-01 -4.210806e-01
                -1.048066e-01 4.658754e-01 -2.481553e-02 5.044190e-01 2.615323e-01 -4.217693e-01 -2.397320e-01 4.218490e-01
                -2.397168e-01 4.225130e-01 2.615405e-01 -4.217498e-01 -2.310809e-02 5.039451e-01 -1.036918e-01 4.661123e-01
                2.615809e-01 -4.211015e-01 -2.397545e-01 4.218555e-01 -1.037038e-01 4.661325e-01 -2.406732e-02 5.050253e-01
3.801695e+00    -4.657843e-03 4.964310e-01 -5.778776e-02 4.798415e-01 -1.889263e-01 4.479225e-01 2.141045e-01 -4.488752e-01
                -5.779491e-02 4.798126e-01 -5.088056e-03 4.963308e-01 2.140147e-01 -4.498130e-01 -1.893632e-01 4.470657e-01
                -1.889328e-01 4.478869e-01 2.140294e-01 -4.497914e-01 -3.229922e-03 4.958374e-01 -5.670943e-02 4.798196e-01
                2.140841e-01 -4.489016e-01 -1.893905e-01 4.470800e-01 -5.672914e-02 4.798446e-01 -4.512564e-03 4.972891e-01
3.867797e+00    1.814390e-02 4.884718e-01 -2.728048e-03 4.873458e-01 -1.294840e-01 4.659103e-01 1.684669e-01 -4.715794e-01
                -2.750444e-03 4.872944e-01 1.692929e-02 4.879429e-01 1.682746e-01 -4.730620e-01 -1.307435e-01 4.649491e-01
                -1.294964e-01 4.658565e-01 1.683027e-01 -4.730368e-01 1.921590e-02 4.873985e-01 -1.833374e-03 4.870829e-01
                1.684220e-01 -4.716136e-01 -1.307787e-01 4.649801e-01 -1.870760e-03 4.871197e-01 1.732661e-02 4.895763e-01
3.933898e+00    5.899634e-02 4.731292e-01 7.336664e-02 4.795625e-01 -4.805160e-02 4.675745e-01 1.395008e-01 -4.963371e-01
                7.328015e-02 4.794491e-01 5.506106e-02 4.715465e-01 1.386894e-01 -4.994950e-01 -5.162612e-02 4.670020e-01
                -4.808898e-02 4.674655e-01 1.387609e-01 -4.994643e-01 5.884214e-02 4.705773e-01 7.362964e-02 4.791786e-01
                1.393763e-01 -4.963794e-01 -5.167536e-02 4.670884e-01 7.353857e-02 4.792639e-01 5.540269e-02 4.751082e-01
4.000000e+00    -6.155885e-02 2.148851e-01 -1.229624e-02 2.338718e-01 -1.313904e-01 2.237809e-01 -4.523908e-02 -7.472596e-01
                -1.288216e-02 2.344343e-01 -7.283638e-02 2.395347e-01 -6.075051e-02 -7.429919e-01 -1.282098e-01 2.422822e-01
                -1.319185e-01 2.239417e-01 -6.066508e-02 -7.433717e-01 -7.468152e-02 2.247399e-01 -1.034055e-02 2.384522e-01
                -4.534031e-02 -7.465676e-01 -1.277376e-01 2.424307e-01 -9.918196e-03 2.390062e-01 -5.612284e-02 2.414662e-01
