! Generated by EMerge - 4-port S-parameters
! File generated: 2026-02-18 05:47 
! --- Branch-Line Coupler 2000 MHz ---
! Substrate: RO4003C
! h = 0.508 mm
! W50 = 1.1 mm, W35 = 1.85 mm
! L35 = 22.2 mm, L50 = 22.2 mm
! L_feed = 5 mm
! Run time = 1.55 min
# GHZ S RI R 50
1.000000e-01    -4.857241e-01 1.529688e-02 4.876909e-01 -6.808877e-02 4.867840e-01 -7.658665e-02 4.856909e-01 -8.916804e-02
                4.876911e-01 -6.808898e-02 -4.857313e-01 1.528916e-02 4.856963e-01 -8.918851e-02 4.867719e-01 -7.655596e-02
                4.867787e-01 -7.658578e-02 4.856909e-01 -8.918727e-02 -4.857638e-01 1.535951e-02 4.876811e-01 -6.812930e-02
                4.856912e-01 -8.916821e-02 4.867721e-01 -7.655591e-02 4.876867e-01 -6.813023e-02 -4.857368e-01 1.531322e-02
1.743590e-01    -4.908686e-01 2.840850e-02 4.750972e-01 -1.167253e-01 4.723106e-01 -1.315075e-01 4.690189e-01 -1.533899e-01
                4.750972e-01 -1.167257e-01 -4.908913e-01 2.839781e-02 4.690137e-01 -1.534231e-01 4.722965e-01 -1.314515e-01
                4.723054e-01 -1.315060e-01 4.690085e-01 -1.534210e-01 -4.909250e-01 2.852404e-02 4.750585e-01 -1.167882e-01
                4.690191e-01 -1.533902e-01 4.722968e-01 -1.314514e-01 4.750640e-01 -1.167898e-01 -4.909090e-01 2.844437e-02
2.487179e-01    -4.980055e-01 4.420097e-02 4.564885e-01 -1.623083e-01 4.507500e-01 -1.833137e-01 4.440432e-01 -2.144078e-01
                4.564884e-01 -1.623088e-01 -4.980507e-01 4.419143e-02 4.440227e-01 -2.144499e-01 4.507343e-01 -1.832285e-01
                4.507451e-01 -1.833116e-01 4.440179e-01 -2.144469e-01 -4.980842e-01 4.437885e-02 4.564089e-01 -1.623817e-01
                4.440434e-01 -2.144082e-01 4.507346e-01 -1.832284e-01 4.564142e-01 -1.623839e-01 -4.980850e-01 4.426748e-02
3.230769e-01    -5.062019e-01 6.348427e-02 4.327608e-01 -2.038650e-01 4.229225e-01 -2.309915e-01 4.115434e-01 -2.711639e-01
                4.327607e-01 -2.038656e-01 -5.062756e-01 6.348104e-02 4.115040e-01 -2.712096e-01 4.229069e-01 -2.308721e-01
                4.229178e-01 -2.309889e-01 4.114998e-01 -2.712060e-01 -5.063050e-01 6.373627e-02 4.326322e-01 -2.039332e-01
                4.115435e-01 -2.711644e-01 4.229072e-01 -2.308720e-01 4.326371e-01 -2.039360e-01 -5.063279e-01 6.359552e-02
3.974359e-01    -5.143397e-01 8.677681e-02 4.049817e-01 -2.407049e-01 3.897896e-01 -2.737907e-01 3.724256e-01 -3.228555e-01
                4.049814e-01 -2.407055e-01 -5.144462e-01 8.678557e-02 3.723652e-01 -3.228987e-01 3.897780e-01 -2.736314e-01
                3.897854e-01 -2.737876e-01 3.723616e-01 -3.228944e-01 -5.144647e-01 8.711572e-02 4.048006e-01 -2.407499e-01
                3.724256e-01 -3.228560e-01 3.897784e-01 -2.736313e-01 4.048052e-01 -2.407532e-01 -5.145150e-01 8.694845e-02
4.717949e-01    -5.212050e-01 1.142849e-01 3.742993e-01 -2.724368e-01 3.523611e-01 -3.112326e-01 3.276277e-01 -3.689396e-01
                3.742988e-01 -2.724375e-01 -5.213477e-01 1.143113e-01 3.275458e-01 -3.689736e-01 3.523595e-01 -3.110276e-01
                3.523573e-01 -3.112290e-01 3.275429e-01 -3.689687e-01 -5.213452e-01 1.147230e-01 3.740676e-01 -2.724395e-01
                3.276276e-01 -3.689402e-01 3.523600e-01 -3.110275e-01 3.740717e-01 -2.724432e-01 -5.214276e-01 1.145326e-01
5.461538e-01    -5.255691e-01 1.459108e-01 3.418607e-01 -2.989565e-01 3.116106e-01 -3.430852e-01 2.780351e-01 -4.091047e-01
                3.418601e-01 -2.989572e-01 -5.257506e-01 1.459598e-01 2.779329e-01 -4.091224e-01 3.116272e-01 -3.428290e-01
                3.116073e-01 -3.430812e-01 2.779308e-01 -4.091171e-01 -5.257136e-01 1.464585e-01 3.415855e-01 -2.988979e-01
                2.780348e-01 -4.091054e-01 3.116278e-01 -3.428289e-01 3.415892e-01 -2.989019e-01 -5.258328e-01 1.462488e-01
6.205128e-01    -5.262505e-01 1.812790e-01 3.087495e-01 -3.204148e-01 2.684102e-01 -3.693150e-01 2.244138e-01 -4.432175e-01
                3.087487e-01 -3.204155e-01 -5.264729e-01 1.813550e-01 2.242945e-01 -4.432117e-01 2.684558e-01 -3.690030e-01
                2.684074e-01 -3.693107e-01 2.242933e-01 -4.432061e-01 -5.263851e-01 1.819437e-01 3.084431e-01 -3.202771e-01
                2.244135e-01 -4.432182e-01 2.684564e-01 -3.690031e-01 3.084464e-01 -3.202814e-01 -5.265455e-01 1.817191e-01
6.948718e-01    -5.221553e-01 2.197701e-01 2.759438e-01 -3.371773e-01 2.234886e-01 -3.900241e-01 1.673684e-01 -4.712536e-01
                2.759429e-01 -3.371780e-01 -5.224216e-01 2.198766e-01 1.672370e-01 -4.712176e-01 2.235763e-01 -3.896532e-01
                2.234864e-01 -3.900195e-01 1.672366e-01 -4.712119e-01 -5.222636e-01 2.205554e-01 2.756234e-01 -3.369453e-01
                1.673679e-01 -4.712542e-01 2.235770e-01 -3.896534e-01 2.756262e-01 -3.369498e-01 -5.224694e-01 2.203206e-01
7.692308e-01    -5.122999e-01 2.605503e-01 2.442940e-01 -3.497865e-01 1.774118e-01 -4.053807e-01 1.073214e-01 -4.932207e-01
                2.442929e-01 -3.497872e-01 -5.126143e-01 2.606903e-01 1.071850e-01 -4.931487e-01 1.775571e-01 -4.049498e-01
                1.774101e-01 -4.053760e-01 1.071856e-01 -4.931429e-01 -5.123645e-01 2.614554e-01 2.439810e-01 -3.494482e-01
                1.073208e-01 -4.932214e-01 1.775579e-01 -4.049501e-01 2.439834e-01 -3.494529e-01 -5.126195e-01 2.612157e-01
8.435897e-01    -4.958200e-01 3.025890e-01 2.145136e-01 -3.589337e-01 1.305851e-01 -4.155490e-01 4.451650e-02 -5.090789e-01
                2.145123e-01 -3.589343e-01 -4.961890e-01 3.027656e-01 4.438410e-02 -5.089659e-01 1.308061e-01 -4.150595e-01
                1.305841e-01 -4.155441e-01 4.438566e-02 -5.089601e-01 -4.958235e-01 3.036082e-01 2.142333e-01 -3.584813e-01
                4.451574e-02 -5.090795e-01 1.308069e-01 -4.150599e-01 2.142353e-01 -3.584861e-01 -4.961316e-01 3.033697e-01
9.179487e-01    -4.719765e-01 3.446580e-01 1.871747e-01 -3.654464e-01 8.327481e-02 -4.206196e-01 -2.095956e-02 -5.186583e-01
                1.871733e-01 -3.654469e-01 -4.724096e-01 3.448758e-01 -2.107664e-02 -5.185013e-01 8.359175e-02 -4.200766e-01
                8.327445e-02 -4.206146e-01 -2.107410e-02 -5.184957e-01 -4.719031e-01 3.457813e-01 1.869559e-01 -3.648772e-01
                -2.096045e-02 -5.186588e-01 8.359252e-02 -4.200771e-01 1.869576e-01 -3.648821e-01 -4.722678e-01 3.455509e-01
9.923077e-01    -4.401689e-01 3.853104e-01 1.626992e-01 -3.702933e-01 3.564976e-02 -4.205422e-01 -8.913108e-02 -5.215762e-01
                1.626976e-01 -3.702936e-01 -4.406792e-01 3.855766e-01 -8.921934e-02 -5.213745e-01 3.608512e-02 -4.199550e-01
                3.565009e-02 -4.205373e-01 -8.921583e-02 -5.213692e-01 -4.400057e-01 3.865234e-01 1.625732e-01 -3.696105e-01
                -8.913211e-02 -5.215767e-01 3.608584e-02 -4.199558e-01 1.625746e-01 -3.696154e-01 -4.404299e-01 3.863087e-01
1.066667e+00    -3.999707e-01 4.228370e-01 1.413296e-01 -3.746059e-01 -1.215082e-02 -4.150593e-01 -1.600594e-01 -5.171509e-01
                1.413279e-01 -3.746062e-01 -4.005753e-01 4.231642e-01 -1.601031e-01 -5.169071e-01 -1.157277e-02 -4.144432e-01
                -1.214977e-02 -4.150545e-01 -1.600986e-01 -5.169022e-01 -3.997090e-01 4.241217e-01 1.413299e-01 -3.738199e-01
                -1.600605e-01 -5.171513e-01 -1.157214e-02 -4.144441e-01 1.413311e-01 -3.738250e-01 -4.001953e-01 4.239317e-01
1.141026e+00    -3.512070e-01 4.552087e-01 1.230657e-01 -3.797109e-01 -5.991289e-02 -4.036457e-01 -2.337258e-01 -5.043160e-01
                1.230638e-01 -3.797110e-01 -3.519259e-01 4.556177e-01 -2.337076e-01 -5.040377e-01 -5.916685e-02 -4.030234e-01
                -5.991109e-02 -4.036411e-01 -2.337022e-01 -5.040335e-01 -3.508434e-01 4.565447e-01 1.232265e-01 -3.788405e-01
                -2.337271e-01 -5.043163e-01 -5.916638e-02 -4.030244e-01 1.232275e-01 -3.788457e-01 -3.513934e-01 4.563896e-01
1.215385e+00    -2.940971e-01 4.800195e-01 1.075432e-01 -3.871547e-01 -1.071882e-01 -3.854681e-01 -3.098518e-01 -4.815497e-01
                1.075410e-01 -3.871547e-01 -2.949514e-01 4.805431e-01 -3.097533e-01 -4.812509e-01 -1.062494e-01 -3.848717e-01
                -1.071856e-01 -3.854638e-01 -3.097470e-01 -4.812475e-01 -2.936349e-01 4.813853e-01 1.078977e-01 -3.862286e-01
                -3.098532e-01 -4.815499e-01 -1.062492e-01 -3.848728e-01 1.078986e-01 -3.862340e-01 -2.942490e-01 4.812766e-01
1.289744e+00    -2.294912e-01 4.944687e-01 9.383331e-02 -3.986833e-01 -1.530596e-01 -3.593986e-01 -3.876297e-01 -4.468516e-01
                9.383091e-02 -3.986830e-01 -2.304992e-01 4.951562e-01 -3.874339e-01 -4.465549e-01 -1.519067e-01 -3.588720e-01
                -1.530562e-01 -3.593949e-01 -3.874267e-01 -4.465526e-01 -2.289416e-01 4.958444e-01 9.441125e-02 -3.977415e-01
                -3.876312e-01 -4.468516e-01 -1.519068e-01 -3.588733e-01 9.441209e-02 -3.977472e-01 -2.296183e-01 4.957948e-01
1.364103e+00    -1.592166e-01 4.954579e-01 8.015458e-02 -4.161043e-01 -1.958231e-01 -3.241536e-01 -4.653504e-01 -3.978407e-01
                8.015191e-02 -4.161037e-01 -1.603853e-01 4.963785e-01 -4.650452e-01 -3.975794e-01 -1.944427e-01 -3.237544e-01
                -1.958190e-01 -3.241506e-01 -4.650372e-01 -3.975783e-01 -1.585983e-01 4.968278e-01 8.097814e-02 -4.151989e-01
                -4.653520e-01 -3.978406e-01 -1.944431e-01 -3.237556e-01 8.097889e-02 -4.152051e-01 -1.593336e-01 4.968509e-01
1.438462e+00    -8.649885e-02 4.799229e-01 6.353886e-02 -4.409139e-01 -2.326294e-01 -2.786722e-01 -5.399600e-01 -3.320934e-01
                6.353591e-02 -4.409129e-01 -8.781228e-02 4.811664e-01 -5.395440e-01 -3.319116e-01 -2.310230e-01 -2.784717e-01
                -2.326247e-01 -2.786702e-01 -5.395355e-01 -3.319120e-01 -8.583763e-02 4.812795e-01 6.461714e-02 -4.401087e-01
                -5.399617e-01 -3.320930e-01 -2.310237e-01 -2.784727e-01 6.461772e-02 -4.401157e-01 -8.662484e-02 4.813894e-01
1.512821e+00    -1.630745e-02 4.455477e-01 3.961733e-02 -4.735553e-01 -2.592501e-01 -2.228676e-01 -6.066988e-01 -2.478646e-01
                3.961414e-02 -4.735537e-01 -1.771011e-02 4.472187e-01 -6.061897e-01 -2.478147e-01 -2.574431e-01 -2.229476e-01
                -2.592450e-01 -2.228668e-01 -6.061810e-01 -2.478169e-01 -1.563246e-02 4.468956e-01 4.094013e-02 -4.729219e-01
                -6.067006e-01 -2.478640e-01 -2.574442e-01 -2.229482e-01 4.094031e-02 -4.729299e-01 -1.646174e-02 4.471058e-01
1.587179e+00    4.472340e-02 3.919075e-01 2.885039e-03 -5.122826e-01 -2.703286e-01 -1.587756e-01 -6.591684e-01 -1.452385e-01
                2.881725e-03 -5.122801e-01 4.334288e-02 3.941067e-01 -6.586116e-01 -1.453726e-01 -2.683796e-01 -1.592191e-01
                -2.703235e-01 -1.587763e-01 -6.586030e-01 -1.453766e-01 4.538521e-02 3.932658e-01 4.417587e-03 -5.118926e-01
                -6.591703e-01 -1.452376e-01 -2.683809e-01 -1.592192e-01 4.416987e-03 -5.119018e-01 4.452627e-02 3.935883e-01
1.661538e+00    8.927227e-02 3.217333e-01 -5.207339e-02 -5.519737e-01 -2.606000e-01 -9.175500e-02 -6.903012e-01 -2.740121e-02
                -5.207660e-02 -5.519703e-01 8.808794e-02 3.245250e-01 -6.897734e-01 -2.775427e-02 -2.586048e-01 -9.262914e-02
                -2.605953e-01 -9.175727e-02 -6.897653e-01 -2.776027e-02 8.990404e-02 3.231344e-01 -5.039106e-02 -5.518871e-01
                -6.903031e-01 -2.739997e-02 -2.586062e-01 -9.262845e-02 -5.039299e-02 -5.518976e-01 8.902947e-02 3.235799e-01
1.735897e+00    1.113869e-01 2.414411e-01 -1.282263e-01 -5.838102e-01 -2.272491e-01 -3.081678e-02 -6.944097e-01 9.882373e-02
                -1.282290e-01 -5.838057e-01 1.106195e-01 2.448122e-01 -6.940115e-01 9.825466e-02 -2.253346e-01 -3.215242e-02
                -2.272455e-01 -3.082051e-02 -6.940046e-01 9.824681e-02 1.119888e-01 2.429247e-01 -1.264719e-01 -5.840636e-01
                -6.944116e-01 9.882533e-02 -2.253356e-01 -3.215083e-02 -1.264759e-01 -5.840751e-01 1.111134e-01 2.435030e-01
1.810256e+00    1.088256e-01 1.599197e-01 -2.234470e-01 -5.969084e-01 -1.725633e-01 1.300626e-02 -6.695227e-01 2.241805e-01
                -2.234488e-01 -5.969028e-01 1.086966e-01 1.637501e-01 -6.693554e-01 2.234523e-01 -1.708665e-01 1.123004e-02
                -1.725614e-01 1.300151e-02 -6.693500e-01 2.234429e-01 1.094161e-01 1.615224e-01 -2.217016e-01 -5.975098e-01
                -6.695244e-01 2.241825e-01 -1.708666e-01 1.123242e-02 -2.217081e-01 -5.975217e-01 1.085563e-01 1.622450e-01
1.884615e+00    8.395677e-02 8.565512e-02 -3.294268e-01 -5.819111e-01 -1.050174e-01 3.025917e-02 -6.182804e-01 3.398490e-01
                -3.294273e-01 -5.819047e-01 8.462586e-02 8.972247e-02 -6.184129e-01 3.390710e-01 -1.036577e-01 2.811479e-02
                -1.050175e-01 3.025411e-02 -6.184093e-01 3.390604e-01 8.456743e-02 8.740154e-02 -3.277604e-01 -5.828467e-01
                -6.182820e-01 3.398513e-01 -1.036566e-01 2.811765e-02 -3.277699e-01 -5.828583e-01 8.374479e-02 8.828280e-02
1.958974e+00    4.215648e-02 2.403364e-02 -4.334576e-01 -5.347194e-01 -3.747883e-02 1.680393e-02 -5.463310e-01 4.401333e-01
                -4.334565e-01 -5.347127e-01 4.367054e-02 2.805866e-02 -5.467714e-01 4.394432e-01 -3.653691e-02 1.439809e-02
                -3.748098e-02 1.679943e-02 -5.467700e-01 4.394319e-01 4.282187e-02 2.593485e-02 -4.319250e-01 -5.359680e-01
                -5.463324e-01 4.401360e-01 -3.653425e-02 1.440089e-02 -4.319376e-01 -5.359784e-01 4.206846e-02 2.698937e-02
2.033333e+00    -1.112659e-02 -2.311322e-02 -5.222591e-01 -4.581123e-01 1.663759e-02 -2.456374e-02 -4.593972e-01 5.229099e-01
                -5.222562e-01 -4.581059e-01 -8.846091e-03 -1.939936e-02 -4.600851e-01 5.224367e-01 1.712583e-02 -2.711430e-02
                1.663374e-02 -2.456690e-02 -4.600858e-01 5.224251e-01 -1.037472e-02 -2.105451e-02 -5.209090e-01 -4.596559e-01
                -4.593982e-01 5.229128e-01 1.713008e-02 -2.711221e-02 -5.209241e-01 -4.596640e-01 -1.101288e-02 -1.981891e-02
2.107692e+00    -7.222994e-02 -5.571437e-02 -5.856884e-01 -3.606886e-01 4.709207e-02 -8.518547e-02 -3.614204e-01 5.878286e-01
                -5.856839e-01 -3.606830e-01 -6.935991e-02 -5.251099e-02 -3.622416e-01 5.876583e-01 4.712721e-02 -8.777242e-02
                4.708721e-02 -8.518670e-02 -3.622445e-01 5.876468e-01 -7.136141e-02 -5.349742e-02 -5.845764e-01 -3.625101e-01
                -3.614211e-01 5.878318e-01 4.713277e-02 -8.777167e-02 -5.845933e-01 -3.625152e-01 -7.182649e-02 -5.208983e-02
2.182051e+00    -1.389149e-01 -7.335983e-02 -6.189116e-01 -2.542246e-01 4.899323e-02 -1.531970e-01 -2.549256e-01 6.342115e-01
                -6.189059e-01 -2.542203e-01 -1.356799e-01 -7.076523e-02 -2.557419e-01 6.343672e-01 4.859983e-02 -1.557282e-01
                4.898821e-02 -1.531961e-01 -2.557469e-01 6.343562e-01 -1.378951e-01 -7.098490e-02 -6.181057e-01 -2.562943e-01
                -2.549259e-01 6.342150e-01 4.860621e-02 -1.557293e-01 -6.181236e-01 -2.562961e-01 -1.381269e-01 -6.943949e-02
2.256410e+00    -2.087149e-01 -7.467480e-02 -6.228699e-01 -1.506560e-01 2.325985e-02 -2.165535e-01 -1.426736e-01 6.604232e-01
                -6.228635e-01 -1.506533e-01 -2.053329e-01 -7.268644e-02 -1.433571e-01 6.608646e-01 2.247700e-02 -2.189534e-01
                2.325552e-02 -2.165505e-01 -1.433641e-01 6.608545e-01 -2.075005e-01 -7.214903e-02 -6.224425e-01 -1.529170e-01
                -1.426733e-01 6.604269e-01 2.248355e-02 -2.189565e-01 -6.224602e-01 -1.529155e-01 -2.074505e-01 -7.052619e-02
2.330769e+00    -2.777358e-01 -5.834370e-02 -6.032815e-01 -5.941566e-02 -2.437989e-02 -2.656909e-01 -2.886322e-02 6.648893e-01
                -6.032749e-01 -5.941449e-02 -2.743773e-01 -5.688370e-02 -2.932350e-02 6.655298e-01 -2.550361e-02 -2.678992e-01
                -2.438285e-02 -2.656864e-01 -2.933222e-02 6.655210e-01 -2.762773e-01 -5.568961e-02 -6.032906e-01 -6.177874e-02
                -2.886242e-02 6.648931e-01 -2.549754e-02 -2.679044e-01 -6.033075e-01 -6.177434e-02 -2.759216e-01 -5.406802e-02
2.405128e+00    -3.408944e-01 -2.461734e-02 -5.685201e-01 1.424658e-02 -8.550544e-02 -2.952019e-01 8.110060e-02 6.475974e-01
                -5.685137e-01 1.424633e-02 -3.376633e-01 -2.357047e-02 8.090413e-02 6.483302e-01 -8.691488e-02 -2.971727e-01
                -8.550661e-02 -2.951964e-01 8.089397e-02 6.483229e-01 -3.391452e-01 -2.187781e-02 -5.689917e-01 1.189329e-02
                8.110198e-02 6.476012e-01 -8.690987e-02 -2.971796e-01 -5.690071e-01 1.190002e-02 -3.384905e-01 -2.034029e-02
2.479487e+00    -3.932454e-01 2.398289e-02 -5.271078e-01 6.947820e-02 -1.514995e-01 -3.040491e-01 1.819226e-01 6.107978e-01
                -5.271020e-01 6.947679e-02 -3.901822e-01 2.473308e-02 1.819838e-01 6.115215e-01 -1.531360e-01 -3.057512e-01
                -1.514987e-01 -3.040433e-01 1.819725e-01 6.115160e-01 -3.911719e-01 2.674648e-02 -5.280277e-01 6.725114e-02
                1.819246e-01 6.108016e-01 -1.531325e-01 -3.057595e-01 -5.280415e-01 6.725957e-02 -3.902527e-01 2.812726e-02
2.553846e+00    -4.313202e-01 8.314539e-02 -4.857917e-01 1.087185e-01 -2.154580e-01 -2.944651e-01 2.697433e-01 5.585251e-01
                -4.857866e-01 1.087163e-01 -4.284202e-01 8.369286e-02 2.700229e-01 5.591601e-01 -2.172632e-01 -2.958817e-01
                -2.154553e-01 -2.944597e-01 2.700110e-01 5.591565e-01 -4.289097e-01 8.586069e-02 -4.871094e-01 1.067206e-01
                2.697459e-01 5.585288e-01 -2.172613e-01 -2.958910e-01 -4.871215e-01 1.067302e-01 -4.277784e-01 8.703135e-02
2.628205e+00    -4.537068e-01 1.478966e-01 -4.487527e-01 1.360382e-01 -2.729690e-01 -2.703029e-01 3.427056e-01 4.954760e-01
                -4.487483e-01 1.360354e-01 -4.509415e-01 1.483038e-01 3.431476e-01 4.959706e-01 -2.748880e-01 -2.714293e-01
                -2.729648e-01 -2.702983e-01 3.431353e-01 4.959688e-01 -4.509688e-01 1.504895e-01 -4.503927e-01 1.343473e-01
                3.427088e-01 4.954794e-01 -2.748879e-01 -2.714391e-01 -4.504034e-01 1.343576e-01 -4.496856e-01 1.514184e-01
2.702564e+00    -4.608328e-01 2.136406e-01 -4.178029e-01 1.557152e-01 -3.219062e-01 -2.356247e-01 4.007269e-01 4.259800e-01
                -4.177992e-01 1.557120e-01 -4.581675e-01 2.139404e-01 4.012716e-01 4.263080e-01 -3.238897e-01 -2.364658e-01
                -3.219006e-01 -2.356213e-01 4.012593e-01 4.263080e-01 -4.577969e-01 2.160431e-01 -4.196778e-01 1.543805e-01
                4.007307e-01 4.259830e-01 -3.238913e-01 -2.364759e-01 -4.196872e-01 1.543912e-01 -4.564206e-01 2.167176e-01
2.776923e+00    -4.543518e-01 2.767350e-01 -3.930600e-01 1.714044e-01 -3.617454e-01 -1.938875e-01 4.448756e-01 3.534357e-01
                -3.930569e-01 1.714011e-01 -4.517569e-01 2.769379e-01 4.454678e-01 3.535913e-01 -3.637508e-01 -1.944550e-01
                -3.617389e-01 -1.938855e-01 4.454556e-01 3.535930e-01 -4.510631e-01 2.788901e-01 -3.950809e-01 1.704489e-01
                4.448800e-01 3.534383e-01 -3.637540e-01 -1.944650e-01 -3.950892e-01 1.704599e-01 -4.496464e-01 2.793118e-01
2.851282e+00    -4.365184e-01 3.346226e-01 -3.736558e-01 1.858487e-01 -3.928492e-01 -1.476708e-01 4.767371e-01 2.801963e-01
                -3.736532e-01 1.858453e-01 -4.339750e-01 3.347251e-01 4.773299e-01 2.801870e-01 -3.948402e-01 -1.479808e-01
                -3.928419e-01 -1.476704e-01 4.773181e-01 2.801903e-01 -4.330330e-01 3.364868e-01 -3.757389e-01 1.852738e-01
                4.767420e-01 2.801983e-01 -3.948450e-01 -1.479904e-01 -3.757463e-01 1.852850e-01 -4.316204e-01 3.366665e-01
2.925641e+00    -4.097386e-01 3.857029e-01 -3.582664e-01 2.009125e-01 -4.159284e-01 -9.873210e-02 4.979560e-01 2.077171e-01
                -3.582642e-01 2.009091e-01 -4.072392e-01 3.856946e-01 4.985116e-01 2.075591e-01 -4.178746e-01 -9.880334e-02
                -4.159208e-01 -9.873336e-02 4.985004e-01 2.075638e-01 -4.061189e-01 3.872467e-01 -3.603366e-01 2.007029e-01
                4.979614e-01 2.077186e-01 -4.178808e-01 -9.881249e-02 -3.603434e-01 2.007144e-01 -4.047471e-01 3.872004e-01
3.000000e+00    -3.763144e-01 4.291158e-01 -3.454348e-01 2.177442e-01 -4.317144e-01 -4.819630e-02 5.099762e-01 1.367994e-01
                -3.454329e-01 2.177407e-01 -3.738625e-01 4.289849e-01 5.104653e-01 1.365136e-01 -4.335902e-01 -4.804912e-02
                -4.317068e-01 -4.819930e-02 5.104547e-01 1.365196e-01 -3.726263e-01 4.303237e-01 -3.474269e-01 2.178725e-01
                5.099821e-01 1.368001e-01 -4.335978e-01 -4.805764e-02 -3.474332e-01 2.178843e-01 -3.713250e-01 4.300698e-01
