! Generated by EMerge - 4-port S-parameters
! File generated: 2026-02-27 06:03 
! --- Double-Box Branch-Line Coupler 2000 MHz ---
! Substrate: RO4003C
! h = 0.508 mm
! W50 = 1.1 mm, W35 = 1.87 mm, W121 = 0.134 mm
! Lx = 22 mm, Ly = 22 mm
! L_feed = 5 mm
! Run time = 2.38 min
# GHZ S RI R 50
1.000000e-02    -4.812673e-01 9.685294e-04 4.922905e-01 -1.150156e-02 4.924534e-01 -1.053928e-02 4.924215e-01 -1.282151e-02
                4.946690e-01 -1.157023e-02 -4.786139e-01 1.011983e-03 4.913556e-01 -1.278163e-02 4.913872e-01 -1.050113e-02
                4.947834e-01 -1.060218e-02 4.913066e-01 -1.278028e-02 -4.789059e-01 1.011659e-03 4.914713e-01 -1.147472e-02
                4.947513e-01 -1.289520e-02 4.913383e-01 -1.050001e-02 4.914713e-01 -1.147472e-02 -4.789057e-01 1.021101e-03
1.123077e-01    -4.914417e-01 1.330026e-02 4.718500e-01 -1.261697e-01 4.737058e-01 -1.155172e-01 4.700158e-01 -1.409793e-01
                4.741264e-01 -1.267926e-01 -4.886403e-01 1.351255e-02 4.690694e-01 -1.404878e-01 4.727358e-01 -1.150392e-01
                4.759441e-01 -1.160768e-01 4.690227e-01 -1.404736e-01 -4.889330e-01 1.351162e-02 4.711146e-01 -1.258193e-01
                4.722359e-01 -1.416594e-01 4.726887e-01 -1.150274e-01 4.711145e-01 -1.258192e-01 -4.889272e-01 1.361769e-02
2.146154e-01    -5.147089e-01 3.772209e-02 4.212723e-01 -2.271986e-01 4.275665e-01 -2.076278e-01 4.140850e-01 -2.554280e-01
                4.233010e-01 -2.283088e-01 -5.115731e-01 3.793404e-02 4.134334e-01 -2.545794e-01 4.268355e-01 -2.067768e-01
                4.295835e-01 -2.086224e-01 4.133924e-01 -2.545536e-01 -5.118660e-01 3.793752e-02 4.207429e-01 -2.265917e-01
                4.160369e-01 -2.566484e-01 4.267931e-01 -2.067558e-01 4.207429e-01 -2.265917e-01 -5.118434e-01 3.813918e-02
3.169231e-01    -5.420882e-01 8.093859e-02 3.491790e-01 -3.063377e-01 3.624571e-01 -2.793544e-01 3.328853e-01 -3.478007e-01
                3.508563e-01 -3.078285e-01 -5.385661e-01 8.089617e-02 3.326435e-01 -3.467490e-01 3.620663e-01 -2.782379e-01
                3.641633e-01 -2.806867e-01 3.326107e-01 -3.467138e-01 -5.388546e-01 8.091266e-02 3.489338e-01 -3.055822e-01
                3.344497e-01 -3.494560e-01 3.620305e-01 -2.782096e-01 3.489339e-01 -3.055823e-01 -5.387998e-01 8.120249e-02
4.192308e-01    -5.631110e-01 1.441057e-01 2.655292e-01 -3.605757e-01 2.879420e-01 -3.284783e-01 2.357400e-01 -4.148381e-01
                2.667999e-01 -3.623261e-01 -5.593008e-01 1.435584e-01 2.359511e-01 -4.137618e-01 2.879452e-01 -3.272189e-01
                2.892935e-01 -3.300407e-01 2.359280e-01 -4.137198e-01 -5.595738e-01 1.435983e-01 2.655949e-01 -3.597944e-01
                2.368421e-01 -4.168076e-01 2.879170e-01 -3.271857e-01 2.655950e-01 -3.597946e-01 -5.594722e-01 1.439562e-01
5.215385e-01    -5.686578e-01 2.237970e-01 1.788741e-01 -3.910443e-01 2.118683e-01 -3.569732e-01 1.302373e-01 -4.571722e-01
                1.797244e-01 -3.929389e-01 -5.647771e-01 2.225692e-01 1.308771e-01 -4.562464e-01 2.122796e-01 -3.556893e-01
                2.128584e-01 -3.586677e-01 1.308648e-01 -4.562000e-01 -5.650153e-01 2.226422e-01 1.792306e-01 -3.903535e-01
                1.308382e-01 -4.593383e-01 2.122590e-01 -3.556532e-01 1.792308e-01 -3.903538e-01 -5.648622e-01 2.230326e-01
6.238462e-01    -5.521569e-01 3.138446e-01 9.528417e-02 -4.010353e-01 1.391145e-01 -3.689459e-01 2.108669e-02 -4.771420e-01
                9.572956e-02 -4.029750e-01 -5.484896e-01 3.118748e-01 2.207530e-02 -4.765212e-01 1.399217e-01 -3.677424e-01
                1.397595e-01 -3.706942e-01 2.207420e-02 -4.764726e-01 -5.486634e-01 3.119866e-01 9.587554e-02 -4.005324e-01
                2.117004e-02 -4.793984e-01 1.399086e-01 -3.677050e-01 9.587572e-02 -4.005328e-01 -5.484774e-01 3.123613e-01
7.261538e-01    -5.094955e-01 4.067695e-01 1.863405e-02 -3.944118e-01 7.162622e-02 -3.688234e-01 -8.965782e-02 -4.768512e-01
                1.870873e-02 -3.963162e-01 -5.063383e-01 4.041219e-01 -8.844800e-02 -4.766600e-01 7.280336e-02 -3.677922e-01
                7.195149e-02 -3.705680e-01 -8.843763e-02 -4.766114e-01 -5.064065e-01 4.042684e-01 1.937758e-02 -3.941693e-01
                -9.009873e-02 -4.791016e-01 7.279704e-02 -3.677548e-01 1.937775e-02 -3.941698e-01 -5.062426e-01 4.045778e-01
8.284615e-01    -4.384736e-01 4.943331e-01 -4.853223e-02 -3.749010e-01 9.000064e-03 -3.601277e-01 -2.017062e-01 -4.568398e-01
                -4.878181e-02 -3.767079e-01 -4.360882e-01 4.911915e-01 -2.004478e-01 -4.571635e-01 1.051454e-02 -3.593550e-01
                9.029202e-03 -3.618281e-01 -2.004257e-01 -4.571168e-01 -4.359982e-01 4.913513e-01 -4.773931e-02 -3.749626e-01
                -2.026766e-01 -4.589905e-01 1.051459e-02 -3.593186e-01 -4.773920e-02 -3.749634e-01 -4.359594e-01 4.915654e-01
9.307692e-01    -3.384860e-01 5.672821e-01 -1.041821e-01 -3.462691e-01 -5.082562e-02 -3.445824e-01 -3.153702e-01 -4.151834e-01
                -1.046998e-01 -3.479347e-01 -3.370564e-01 5.639332e-01 -3.142812e-01 -4.160498e-01 -4.901264e-02 -3.441600e-01
                -5.107881e-02 -3.462061e-01 -3.142469e-01 -4.160074e-01 -3.367484e-01 5.640557e-01 -1.034582e-01 -3.466442e-01
                -3.168764e-01 -4.171317e-01 -4.900651e-02 -3.441251e-01 -1.034582e-01 -3.466451e-01 -3.369894e-01 5.641999e-01
1.033077e+00    -2.109763e-01 6.145259e-01 -1.465329e-01 -3.132744e-01 -1.106811e-01 -3.211206e-01 -4.300180e-01 -3.467297e-01
                -1.472541e-01 -3.147779e-01 -2.105693e-01 6.113303e-01 -4.293553e-01 -3.480749e-01 -1.086252e-01 -3.211595e-01
                -1.112161e-01 -3.226299e-01 -4.293086e-01 -3.480397e-01 -2.099887e-01 6.113223e-01 -1.460049e-01 -3.139273e-01
                -4.320631e-01 -3.483486e-01 -1.086130e-01 -3.211269e-01 -1.460050e-01 -3.139285e-01 -2.106982e-01 6.115313e-01
1.135385e+00    -6.141127e-02 6.222012e-01 -1.751444e-01 -2.831680e-01 -1.723059e-01 -2.846208e-01 -5.414501e-01 -2.425138e-01
                -1.760026e-01 -2.845236e-01 -6.193955e-02 6.195468e-01 -5.414742e-01 -2.441292e-01 -1.701086e-01 -2.852614e-01
                -1.731299e-01 -2.859540e-01 -5.414152e-01 -2.441053e-01 -6.106472e-02 6.192597e-01 -1.749306e-01 -2.840036e-01
                -5.440169e-01 -2.436343e-01 -1.700901e-01 -2.852326e-01 -1.749308e-01 -2.840051e-01 -6.239711e-02 6.198448e-01
1.237692e+00    9.607224e-02 5.741916e-01 -1.947798e-01 -2.664430e-01 -2.319912e-01 -2.254564e-01 -6.369542e-01 -9.068430e-02
                -1.957319e-01 -2.677155e-01 9.486945e-02 5.724181e-01 -6.378253e-01 -9.216731e-02 -2.298576e-01 -2.268543e-01
                -2.330937e-01 -2.265068e-01 -6.377557e-01 -9.216004e-02 9.597662e-02 5.716547e-01 -1.949519e-01 -2.672985e-01
                -6.399646e-01 -9.108203e-02 -2.298329e-01 -2.268314e-01 -1.949523e-01 -2.673005e-01 9.406799e-02 5.731379e-01
1.340000e+00    2.315684e-01 4.589752e-01 -2.223990e-01 -2.720828e-01 -2.732377e-01 -1.345346e-01 -6.881450e-01 1.163255e-01
                -2.234844e-01 -2.733794e-01 2.300952e-01 4.582756e-01 -6.897255e-01 1.155235e-01 -2.715448e-01 -1.367676e-01
                -2.745297e-01 -1.351533e-01 -6.896500e-01 1.155076e-01 2.312299e-01 4.568512e-01 -2.229232e-01 -2.727544e-01
                -6.913862e-01 1.169088e-01 -2.715159e-01 -1.367540e-01 -2.229241e-01 -2.727573e-01 2.292633e-01 4.598179e-01
1.442308e+00    2.999630e-01 2.896446e-01 -2.880268e-01 -2.900281e-01 -2.656018e-01 -2.109572e-02 -6.515160e-01 3.615895e-01
                -2.894286e-01 -2.914061e-01 2.986549e-01 2.899977e-01 -6.532100e-01 3.618537e-01 -2.648593e-01 -2.395292e-02
                -2.668515e-01 -2.117950e-02 -6.531385e-01 3.618100e-01 2.994779e-01 2.878779e-01 -2.887312e-01 -2.903705e-01
                -6.545708e-01 3.633299e-01 -2.648310e-01 -2.395089e-02 -2.887334e-01 -2.903744e-01 2.985596e-01 2.924436e-01
1.544615e+00    2.728605e-01 1.218871e-01 -4.062669e-01 -2.746901e-01 -1.928811e-01 7.055873e-02 -5.002256e-01 5.854246e-01
                -4.082365e-01 -2.759860e-01 2.720537e-01 1.231126e-01 -5.012636e-01 5.865188e-01 -1.933983e-01 6.771677e-02
                -1.937827e-01 7.090362e-02 -5.012095e-01 5.864493e-01 2.722700e-01 1.205082e-01 -4.069407e-01 -2.747310e-01
                -5.025532e-01 5.882144e-01 -1.933772e-01 6.770920e-02 -4.069451e-01 -2.747353e-01 2.734574e-01 1.257100e-01
1.646923e+00    1.817349e-01 1.839841e-02 -5.375668e-01 -1.791899e-01 -9.134822e-02 9.501095e-02 -2.673917e-01 7.202124e-01
                -5.401620e-01 -1.800166e-01 1.816696e-01 2.027295e-02 -2.675265e-01 7.213979e-01 -9.285627e-02 9.291966e-02
                -9.176953e-02 9.546633e-02 -2.674995e-01 7.213125e-01 1.812199e-01 1.748012e-02 -5.381347e-01 -1.790682e-01
                -2.686114e-01 7.236260e-01 -9.284547e-02 9.290912e-02 -5.381420e-01 -1.790717e-01 1.844104e-01 2.173238e-02
1.749231e+00    8.995808e-02 -1.220967e-02 -6.188009e-01 -1.185561e-02 -1.840775e-02 6.144530e-02 -1.924487e-02 7.509154e-01
                -6.217751e-01 -1.186992e-02 9.084648e-02 -9.967926e-03 -1.885051e-02 7.516928e-01 -2.023735e-02 6.040936e-02
                -1.848626e-02 6.173948e-02 -1.885284e-02 7.516035e-01 8.980354e-02 -1.279365e-02 -6.193088e-01 -1.163794e-02
                -1.929019e-02 7.544602e-01 -2.023445e-02 6.040175e-02 -6.193187e-01 -1.163901e-02 9.377110e-02 -1.038711e-02
1.851538e+00    3.219371e-02 -3.485076e-03 -6.222883e-01 1.811432e-01 6.977925e-03 1.462603e-02 2.041529e-01 7.036686e-01
                -6.252642e-01 1.820598e-01 3.416474e-02 -1.278191e-03 2.046669e-01 7.040435e-01 5.417382e-03 1.446793e-02
                7.018145e-03 1.469903e-02 2.046374e-01 7.039596e-01 3.253314e-02 -4.078958e-03 -6.227544e-01 1.814840e-01
                2.051609e-01 7.069774e-01 5.416798e-03 1.446490e-02 -6.227660e-01 1.814865e-01 3.598262e-02 -3.314681e-03
1.953846e+00    1.000544e-02 1.211769e-02 -5.549648e-01 3.615197e-01 3.178381e-03 -1.345359e-02 3.925444e-01 6.034779e-01
                -5.576008e-01 3.633007e-01 1.300680e-02 1.380661e-02 3.930685e-01 6.036232e-01 2.188907e-03 -1.312800e-02
                3.201656e-03 -1.351260e-02 3.930156e-01 6.035513e-01 1.071503e-02 1.114627e-02 -5.553383e-01 3.620048e-01
                3.944374e-01 6.063022e-01 2.187483e-03 -1.312775e-02 -5.553503e-01 3.620116e-01 1.290062e-02 1.108429e-02
2.056154e+00    1.252896e-02 1.537856e-02 -4.325553e-01 5.085362e-01 -2.110156e-03 -1.681747e-02 5.441680e-01 4.630134e-01
                -4.345872e-01 5.110156e-01 1.627828e-02 1.607328e-02 5.447769e-01 4.629418e-01 -2.487847e-03 -1.641411e-02
                -2.109043e-03 -1.689335e-02 5.447044e-01 4.628874e-01 1.328843e-02 1.378427e-02 -4.327735e-01 5.091314e-01
                5.467701e-01 4.651647e-01 -2.489956e-03 -1.641212e-02 -4.327845e-01 5.091432e-01 1.405835e-02 1.386373e-02
2.158462e+00    2.602725e-02 -4.240179e-03 -2.689010e-01 6.088495e-01 1.142950e-02 -8.742540e-03 6.552326e-01 2.882903e-01
                -2.701331e-01 6.117969e-01 2.997873e-02 -4.903673e-03 6.559003e-01 2.877977e-01 1.151802e-02 -8.583024e-03
                1.149731e-02 -8.784306e-03 6.558129e-01 2.877659e-01 2.638947e-02 -6.517824e-03 -2.689409e-01 6.094916e-01
                6.583503e-01 2.896086e-01 1.151398e-02 -8.579261e-03 -2.689490e-01 6.095086e-01 2.610965e-02 -5.421772e-03
2.260769e+00    3.431740e-02 -5.194825e-02 -7.959767e-02 6.487712e-01 4.884588e-02 -1.300130e-02 7.174219e-01 8.418595e-02
                -7.991188e-02 6.518910e-01 3.765854e-02 -5.403076e-02 7.178007e-01 8.306551e-02 4.913528e-02 -1.327024e-02
                4.909030e-02 -1.307008e-02 7.177046e-01 8.306099e-02 3.376211e-02 -5.469610e-02 -7.947152e-02 6.494195e-01
                7.208225e-01 8.453449e-02 4.912857e-02 -1.326247e-02 -7.947385e-02 6.494411e-01 3.325821e-02 -5.202534e-02
2.363077e+00    1.686925e-02 -1.258459e-01 1.095699e-01 6.168164e-01 9.473010e-02 -5.271188e-02 7.168468e-01 -1.404073e-01
                1.101647e-01 6.197601e-01 1.871749e-02 -1.288192e-01 7.163225e-01 -1.419757e-01 9.491226e-02 -5.341720e-02
                9.518580e-02 -5.297544e-02 7.162263e-01 -1.419491e-01 1.498652e-02 -1.284354e-01 1.098708e-01 6.174658e-01
                7.202322e-01 -1.411226e-01 9.490474e-02 -5.340204e-02 1.098771e-01 6.174897e-01 1.534635e-02 -1.242510e-01
2.465385e+00    -4.883548e-02 -2.091773e-01 2.612779e-01 5.177615e-01 1.157909e-01 -1.329344e-01 6.369292e-01 -3.638291e-01
                2.625922e-01 5.202084e-01 -4.886466e-02 -2.118390e-01 6.351113e-01 -3.650377e-01 1.156241e-01 -1.339046e-01
                1.163353e-01 -1.335799e-01 6.350263e-01 -3.649795e-01 -5.191430e-02 -2.106218e-01 2.618208e-01 5.183754e-01
                6.399233e-01 -3.655991e-01 1.156210e-01 -1.338803e-01 2.618371e-01 5.183968e-01 -4.986600e-02 -2.057590e-01
2.567692e+00    -1.713952e-01 -2.650846e-01 3.453845e-01 3.852114e-01 8.246228e-02 -2.272390e-01 4.742799e-01 -5.459010e-01
                3.470863e-01 3.870079e-01 -1.726073e-01 -2.661713e-01 4.716193e-01 -5.457221e-01 8.187745e-02 -2.282079e-01
                8.283766e-02 -2.283250e-01 4.715581e-01 -5.456376e-01 -1.746831e-01 -2.646492e-01 3.462183e-01 3.856414e-01
                4.764925e-01 -5.485257e-01 8.188485e-02 -2.281774e-01 3.462425e-01 3.856552e-01 -1.709882e-01 -2.602883e-01
2.670000e+00    -3.257080e-01 -2.551301e-01 3.660778e-01 2.657082e-01 -2.065608e-03 -2.936721e-01 2.583525e-01 -6.458281e-01
                3.678619e-01 2.669259e-01 -3.266496e-01 -2.543376e-01 2.560346e-01 -6.439115e-01 -2.961820e-03 -2.944297e-01
                -2.096283e-03 -2.950607e-01 2.560055e-01 -6.438121e-01 -3.278721e-01 -2.530898e-01 3.670991e-01 2.657570e-01
                2.595353e-01 -6.489153e-01 -2.941122e-03 -2.943996e-01 3.671264e-01 2.657603e-01 -3.233634e-01 -2.498900e-01
2.772308e+00    -4.645727e-01 -1.720473e-01 3.567475e-01 1.827300e-01 -1.057567e-01 -3.112035e-01 4.004355e-02 -6.543020e-01
                3.584735e-01 1.835496e-01 -4.641554e-01 -1.702045e-01 3.909157e-02 -6.512692e-01 -1.067969e-01 -3.116775e-01
                -1.062766e-01 -3.126619e-01 3.909596e-02 -6.511680e-01 -4.649348e-01 -1.695503e-01 3.577134e-01 1.823206e-01
                4.019052e-02 -6.574188e-01 -1.067645e-01 -3.116543e-01 3.577392e-01 1.823137e-01 -4.604336e-01 -1.673359e-01
2.874615e+00    -5.540188e-01 -4.134691e-02 3.468197e-01 1.291448e-01 -2.002018e-01 -2.878510e-01 -1.431869e-01 -5.948065e-01
                3.484884e-01 1.297075e-01 -5.521050e-01 -3.959862e-02 -1.424906e-01 -5.916648e-01 -2.012600e-01 -2.880666e-01
                -2.011611e-01 -2.891889e-01 -1.424560e-01 -5.915712e-01 -5.528611e-01 -3.954454e-02 3.474989e-01 1.283750e-01
                -1.439056e-01 -5.976353e-01 -2.012190e-01 -2.880549e-01 3.475204e-01 1.283583e-01 -5.486500e-01 -3.779059e-02
2.976923e+00    -5.866309e-01 1.049643e-01 3.465519e-01 8.861774e-02 -2.754915e-01 -2.397418e-01 -2.803061e-01 -4.973289e-01
                3.482075e-01 8.898117e-02 -5.837314e-01 1.058376e-01 -2.782702e-01 -4.948986e-01 -2.764990e-01 -2.397478e-01
                -2.767947e-01 -2.408474e-01 -2.782053e-01 -4.948161e-01 -5.847526e-01 1.054510e-01 3.468159e-01 8.767351e-02
                -2.816717e-01 -4.997043e-01 -2.764503e-01 -2.397558e-01 3.468290e-01 8.763961e-02 -5.806934e-01 1.071374e-01
3.079231e+00    -5.515505e-01 2.241805e-01 3.732166e-01 2.962271e-02 -3.136255e-01 -1.970712e-01 -3.564253e-01 -4.024590e-01
                3.750050e-01 2.983456e-02 -5.488657e-01 2.243724e-01 -3.540310e-01 -4.005180e-01 -3.145219e-01 -1.970779e-01
                -3.151609e-01 -1.979785e-01 -3.540217e-01 -4.005886e-01 -5.501395e-01 2.242621e-01 3.732344e-01 2.904398e-02
                -3.582991e-01 -4.041604e-01 -3.146329e-01 -1.970090e-01 3.731546e-01 2.922923e-02 -5.455827e-01 2.254116e-01
3.181538e+00    -5.186934e-01 3.490956e-01 3.655514e-01 -8.961003e-03 -3.742052e-01 -1.203876e-01 -4.368447e-01 -2.757867e-01
                3.673081e-01 -9.045318e-03 -5.157667e-01 3.481017e-01 -4.336929e-01 -2.754634e-01 -3.750699e-01 -1.201608e-01
                -3.759671e-01 -1.209159e-01 -4.336345e-01 -2.754312e-01 -5.174323e-01 3.475722e-01 3.651782e-01 -9.656706e-03
                -4.389361e-01 -2.770411e-01 -3.750365e-01 -1.201467e-01 3.652031e-01 -9.640534e-03 -5.130264e-01 3.489542e-01
3.283846e+00    -4.457454e-01 4.371869e-01 3.721268e-01 -6.602679e-02 -4.049164e-01 -4.624987e-02 -4.733797e-01 -1.579388e-01
                3.739048e-01 -6.639243e-02 -4.433764e-01 4.355244e-01 -4.703646e-01 -1.588011e-01 -4.056918e-01 -4.593135e-02
                -4.068099e-01 -4.642939e-02 -4.702936e-01 -1.587835e-01 -4.453748e-01 4.351270e-01 3.715363e-01 -6.645483e-02
                -4.756359e-01 -1.586458e-01 -4.056541e-01 -4.593234e-02 3.715604e-01 -6.645216e-02 -4.406854e-01 4.362315e-01
3.386154e+00    -3.610195e-01 4.957700e-01 3.707573e-01 -1.330735e-01 -4.222107e-01 3.431209e-02 -4.869175e-01 -4.104476e-02
                3.725189e-01 -1.337644e-01 -3.593423e-01 4.938047e-01 -4.844020e-01 -4.291368e-02 -4.228990e-01 3.469101e-02
                -4.241741e-01 3.451004e-02 -4.843262e-01 -4.291410e-02 -3.615608e-01 4.936665e-01 3.700944e-01 -1.331773e-01
                -4.892306e-01 -4.120196e-02 -4.228615e-01 3.467963e-02 3.701189e-01 -1.331816e-01 -3.566756e-01 4.943043e-01
3.488462e+00    -2.744918e-01 5.264486e-01 3.559776e-01 -2.083694e-01 -4.234439e-01 1.216735e-01 -4.782035e-01 7.498520e-02
                3.576573e-01 -2.094229e-01 -2.734644e-01 5.244899e-01 -4.764786e-01 7.234580e-02 -4.240517e-01 1.220856e-01
                -4.254017e-01 1.222785e-01 -4.764028e-01 7.232623e-02 -2.757649e-01 5.246790e-01 3.553902e-01 -2.081477e-01
                -4.804685e-01 7.537448e-02 -4.240169e-01 1.220652e-01 3.554155e-01 -2.081585e-01 -2.708691e-01 5.247434e-01
3.590769e+00    -1.949355e-01 5.329247e-01 3.222336e-01 -2.885922e-01 -4.041295e-01 2.138658e-01 -4.455568e-01 1.884101e-01
                3.237389e-01 -2.900295e-01 -1.943964e-01 5.311756e-01 -4.448471e-01 1.853063e-01 -4.046719e-01 2.142842e-01
                -4.059855e-01 2.148977e-01 -4.447761e-01 1.852672e-01 -1.966233e-01 5.316990e-01 3.218674e-01 -2.880998e-01
                -4.476609e-01 1.893329e-01 -4.046424e-01 2.142559e-01 3.218930e-01 -2.881179e-01 -1.919563e-01 5.311927e-01
3.693077e+00    -1.294142e-01 5.218581e-01 2.643792e-01 -3.675740e-01 -3.592127e-01 3.057577e-01 -3.865677e-01 2.945786e-01
                2.655934e-01 -3.693857e-01 -1.291498e-01 5.203719e-01 -3.870126e-01 2.913994e-01 -3.597196e-01 3.061564e-01
                -3.608476e-01 3.072115e-01 -3.869517e-01 2.913413e-01 -1.311489e-01 5.211676e-01 2.643625e-01 -3.669284e-01
                -3.883871e-01 2.959994e-01 -3.596980e-01 3.061221e-01 2.643870e-01 -3.669553e-01 -1.269520e-01 5.202246e-01
3.795385e+00    -8.119984e-02 5.030644e-01 1.793035e-01 -4.357344e-01 -2.848055e-01 3.885618e-01 -3.006817e-01 3.854291e-01
                1.800957e-01 -4.378640e-01 -8.103445e-02 5.017187e-01 -3.022898e-01 3.826547e-01 -2.853293e-01 3.889216e-01
                -2.860830e-01 3.903908e-01 -3.022445e-01 3.825799e-01 -8.268003e-02 5.026528e-01 1.797215e-01 -4.351204e-01
                -3.020910e-01 3.872743e-01 -2.853182e-01 3.888847e-01 1.797424e-01 -4.351576e-01 -7.913728e-02 5.015474e-01
3.897692e+00    -4.581897e-02 4.878486e-01 6.770534e-02 -4.808806e-01 -1.792852e-01 4.506404e-01 -1.928086e-01 4.509499e-01
                6.794913e-02 -4.832117e-01 -4.572815e-02 4.863370e-01 -1.953827e-01 4.491655e-01 -1.799075e-01 4.509636e-01
                -1.800627e-01 4.527427e-01 -1.953582e-01 4.490784e-01 -4.696014e-02 4.872096e-01 6.857081e-02 -4.805507e-01
                -1.937064e-01 4.530994e-01 -1.799087e-01 4.509296e-01 6.858486e-02 -4.805998e-01 -4.413635e-02 4.863692e-01
4.000000e+00    -1.302086e-03 4.823861e-01 -6.852519e-02 -4.888797e-01 -3.663175e-02 4.776845e-01 -7.929427e-02 4.851406e-01
                -6.894687e-02 -4.912239e-01 -1.538193e-03 4.801157e-01 -8.222429e-02 4.852047e-01 -3.738254e-02 4.780265e-01
                -3.674008e-02 4.798872e-01 -8.222204e-02 4.851115e-01 -2.501487e-03 4.806653e-01 -6.728874e-02 -4.891973e-01
                -7.965985e-02 4.874476e-01 -3.739629e-02 4.780071e-01 -6.728763e-02 -4.892633e-01 -1.525117e-04 4.808477e-01
