! Generated by EMerge - 2-port S-parameters
! File generated: 2026-03-03 19:18 
! --- Coupled-Line BPF 5000 MHz ---
! Substrate: RO4003C
! h = 0.508 mm
! W50 = 1.1 mm, Lfeed = 5 mm
! L1 = 8.93 mm, S1 = 0.103 mm, W1 = 0.76 mm
! L2 = 8.93 mm, S2 = 0.103 mm, W2 = 1.08 mm
! Run time = 0.93 min
# GHZ S RI R 50
2.500000e+00  -7.870582e-01  -5.758968e-01  -2.171367e-04  2.099982e-04  -2.166067e-04  2.108599e-04  -7.924475e-01  -5.682924e-01
2.602041e+00  -8.477746e-01  -4.807108e-01  -2.231688e-04  2.912261e-04  -2.224589e-04  2.921483e-04  -8.526288e-01  -4.718508e-01
2.704082e+00  -8.977718e-01  -3.776728e-01  -2.133363e-04  3.818368e-04  -2.124124e-04  3.828049e-04  -9.018633e-01  -3.675531e-01
2.806122e+00  -9.358931e-01  -2.678117e-01  -1.839483e-04  4.781834e-04  -1.827728e-04  4.791762e-04  -9.389772e-01  -2.564663e-01
2.908163e+00  -9.610371e-01  -1.523120e-01  -1.319475e-04  5.747078e-04  -1.304792e-04  5.756958e-04  -9.628572e-01  -1.398186e-01
3.010204e+00  -9.721690e-01  -3.251588e-02  -5.568277e-05  6.635359e-04  -5.387717e-05  6.644793e-04  -9.724630e-01  -1.900150e-02
3.112245e+00  -9.683301e-01  9.007416e-02  4.390657e-05  7.340800e-04  4.609689e-05  7.349262e-04  -9.668383e-01  1.044282e-01
3.214286e+00  -9.486443e-01  2.137902e-01  1.614789e-04  7.727258e-04  1.641036e-04  7.734063e-04  -9.451187e-01  2.287439e-01
3.316327e+00  -9.123207e-01  3.367897e-01  2.845079e-04  7.627669e-04  2.876179e-04  7.631925e-04  -9.065355e-01  3.520409e-01
3.418367e+00  -8.586520e-01  4.570380e-01  3.889740e-04  6.849278e-04  3.926194e-04  6.849832e-04  -8.504159e-01  4.722192e-01
3.520408e+00  -7.870058e-01  5.722770e-01  4.326197e-04  5.191895e-04  4.368462e-04  5.187249e-04  -7.761767e-01  5.869531e-01
3.622449e+00  -6.968107e-01  6.799699e-01  3.442695e-04  2.494172e-04  3.491125e-04  2.482373e-04  -6.833132e-01  6.936361e-01
3.724490e+00  -5.875354e-01  7.772061e-01  6.752366e-06  -1.259803e-04  1.222572e-05  -1.281332e-04  -5.713835e-01  7.892874e-01
3.826531e+00  -4.586663e-01  8.605396e-01  -7.705173e-04  -5.702750e-04  -7.644418e-04  -5.737433e-04  -4.399944e-01  8.703905e-01
3.928571e+00  -3.096954e-01  9.257090e-01  -2.295123e-03  -9.554727e-04  -2.288555e-03  -9.607162e-04  -2.888030e-01  9.326191e-01
4.030612e+00  -1.401554e-01  9.671491e-01  -5.057797e-03  -9.425818e-04  -5.051003e-03  -9.502217e-04  -1.175752e-01  9.703601e-01
4.132653e+00  5.019609e-02  9.771156e-01  -9.817785e-03  2.963635e-04  -9.811342e-03  2.854954e-04  7.359190e-02  9.758695e-01
4.234694e+00  2.607481e-01  9.440657e-01  -1.764187e-02  4.744482e-03  -1.763698e-02  4.729321e-03  2.835823e-01  9.377367e-01
4.336735e+00  4.880448e-01  8.495787e-01  -2.952282e-02  1.717897e-02  -2.952197e-02  1.715837e-02  5.082074e-01  8.380192e-01
4.438776e+00  7.193027e-01  6.625562e-01  -4.372050e-02  4.914227e-02  -4.372879e-02  4.911592e-02  7.337934e-01  6.469940e-01
4.540816e+00  9.096226e-01  3.309528e-01  -4.185975e-02  1.264532e-01  -4.188695e-02  1.264256e-01  9.153944e-01  3.161392e-01
4.642857e+00  9.018450e-01  -1.965614e-01  7.223043e-02  2.754491e-01  7.217357e-02  2.754439e-01  9.021990e-01  -1.995601e-01
4.744898e+00  3.493102e-01  -6.490427e-01  5.265364e-01  2.483692e-01  5.264914e-01  2.484378e-01  3.703366e-01  -6.401401e-01
4.846939e+00  -2.020186e-01  -2.856898e-01  6.714309e-01  -5.294334e-01  6.714971e-01  -5.293705e-01  -1.688826e-01  -3.115136e-01
4.948980e+00  -6.615725e-02  5.231098e-03  -1.046261e-01  -9.227549e-01  -1.045537e-01  -9.227968e-01  -6.813608e-02  -2.564212e-02
5.051020e+00  6.283166e-02  -1.297938e-01  -7.999369e-01  -4.576503e-01  -7.999380e-01  -4.577217e-01  6.396996e-02  -1.318574e-01
5.153061e+00  -2.374057e-01  -3.954115e-01  -7.212102e-01  3.563813e-01  -7.212442e-01  3.563490e-01  -2.058331e-01  -4.139029e-01
5.255102e+00  -7.546354e-01  -8.733400e-02  -1.041216e-01  5.274427e-01  -1.041410e-01  5.274205e-01  -7.462215e-01  -1.404553e-01
5.357143e+00  -7.605091e-01  4.640568e-01  1.416845e-01  2.757926e-01  1.416566e-01  2.757577e-01  -7.847053e-01  4.199100e-01
5.459184e+00  -5.017564e-01  7.908607e-01  1.474672e-01  1.079000e-01  1.474169e-01  1.078643e-01  -5.364697e-01  7.665584e-01
5.561224e+00  -2.136762e-01  9.309565e-01  1.105700e-01  3.219968e-02  1.104946e-01  3.217346e-02  -2.478854e-01  9.215510e-01
5.663265e+00  4.511135e-02  9.633714e-01  7.804579e-02  -2.839978e-04  7.794086e-02  -2.919765e-04  1.482928e-02  9.636015e-01
5.765306e+00  2.666300e-01  9.319214e-01  5.560763e-02  -1.532172e-02  5.545903e-02  -1.529555e-02  2.408928e-01  9.383333e-01
5.867347e+00  4.536729e-01  8.566349e-01  4.192141e-02  -2.726944e-02  4.168398e-02  -2.715121e-02  4.322211e-01  8.673268e-01
5.969388e+00  5.864829e-01  7.150277e-01  1.193046e-02  -7.617622e-02  1.162040e-02  -7.530843e-02  5.703963e-01  7.305717e-01
6.071429e+00  6.971268e-01  6.929345e-01  -9.362680e-03  1.012690e-02  -8.945472e-03  9.999823e-03  6.843264e-01  7.055359e-01
6.173469e+00  8.120680e-01  5.638528e-01  2.076213e-03  3.384646e-03  2.228596e-03  3.263423e-03  8.015394e-01  5.781983e-01
6.275510e+00  8.908565e-01  4.327103e-01  2.900224e-03  1.655802e-03  2.976709e-03  1.556312e-03  8.829083e-01  4.480568e-01
6.377551e+00  9.455144e-01  2.992603e-01  2.663058e-03  1.463381e-03  2.702369e-03  1.378498e-03  9.400372e-01  3.152342e-01
6.479592e+00  9.790382e-01  1.651016e-01  2.453770e-03  1.743771e-03  2.469769e-03  1.669785e-03  9.759171e-01  1.814442e-01
6.581633e+00  9.932346e-01  3.210539e-02  2.438703e-03  2.129440e-03  2.437757e-03  2.064572e-03  9.923792e-01  4.860109e-02
6.683673e+00  9.895842e-01  -9.794095e-02  2.608937e-03  2.475633e-03  2.594380e-03  2.419179e-03  9.909226e-01  -8.149381e-02
6.785714e+00  9.694534e-01  -2.233994e-01  2.922182e-03  2.725151e-03  2.895875e-03  2.677111e-03  9.729220e-01  -2.072015e-01
6.887755e+00  9.341727e-01  -3.427899e-01  3.337485e-03  2.859479e-03  3.300474e-03  2.820419e-03  9.397053e-01  -3.270461e-01
6.989796e+00  8.850716e-01  -4.547881e-01  3.824507e-03  2.877876e-03  3.777337e-03  2.848925e-03  8.925902e-01  -4.397081e-01
7.091837e+00  8.234927e-01  -5.582224e-01  4.366413e-03  2.786969e-03  4.309287e-03  2.769925e-03  8.329002e-01  -5.440181e-01
7.193878e+00  7.507951e-01  -6.520702e-01  4.962127e-03  2.594236e-03  4.895007e-03  2.591825e-03  7.619698e-01  -6.389515e-01
7.295918e+00  6.683484e-01  -7.354540e-01  5.630851e-03  2.301775e-03  5.553540e-03  2.318140e-03  6.811399e-01  -7.236231e-01
7.397959e+00  5.775171e-01  -8.076317e-01  6.422260e-03  1.896160e-03  6.334562e-03  1.937849e-03  5.917433e-01  -7.972764e-01
7.500000e+00  4.796301e-01  -8.679739e-01  7.439803e-03  1.324349e-03  7.342021e-03  1.402382e-03  4.950735e-01  -8.592595e-01
