! Generated by EMerge - 2-port S-parameters
! File generated: 2026-03-03 05:56 
! --- Coupled-Line BPF 5000 MHz ---
! Substrate: RO4003C
! h = 0.508 mm
! W50 = 1.1 mm, Lfeed = 5 mm
! L1 = 8.93 mm, S1 = 0.103 mm, W1 = 0.76 mm
! L2 = 8.93 mm, S2 = 0.103 mm, W2 = 1.08 mm
! Run time = 2.12 min
# GHZ S RI R 50
2.500000e+00  -7.830042e-01  -5.908200e-01  -2.391464e-04  2.356169e-04  -2.384497e-04  2.355922e-04  -7.864641e-01  -5.861553e-01
2.602041e+00  -8.440875e-01  -4.987441e-01  -2.460132e-04  3.207886e-04  -2.452388e-04  3.206890e-04  -8.471828e-01  -4.934087e-01
2.704082e+00  -8.950509e-01  -3.990640e-01  -2.375127e-04  4.167325e-04  -2.366569e-04  4.165342e-04  -8.976711e-01  -3.930633e-01
2.806122e+00  -9.348341e-01  -2.927094e-01  -2.097541e-04  5.206223e-04  -2.088161e-04  5.202947e-04  -9.368614e-01  -2.860637e-01
2.908163e+00  -9.624202e-01  -1.807403e-01  -1.591358e-04  6.279504e-04  -1.581197e-04  6.274548e-04  -9.637301e-01  -1.734869e-01
3.010204e+00  -9.768418e-01  -6.434972e-02  -8.292952e-05  7.321041e-04  -8.184740e-05  7.313916e-04  -9.773047e-01  -5.654570e-02
3.112245e+00  -9.771853e-01  5.513257e-02  1.979369e-05  8.238929e-04  2.091711e-05  8.229025e-04  -9.766681e-01  6.340764e-02
3.214286e+00  -9.625929e-01  1.762334e-01  1.466990e-04  8.910660e-04  1.478195e-04  8.897224e-04  -9.609614e-01  1.848742e-01
3.316327e+00  -9.322605e-01  2.973253e-01  2.898700e-04  9.179136e-04  2.909136e-04  9.161255e-04  -9.293820e-01  3.061971e-01
3.418367e+00  -8.854304e-01  4.166074e-01  4.321101e-04  8.851748e-04  4.329574e-04  8.828340e-04  -8.811779e-01  4.255420e-01
3.520408e+00  -8.213777e-01  5.320735e-01  5.409762e-04  7.707517e-04  5.414386e-04  7.677347e-04  -8.156347e-01  5.408641e-01
3.622449e+00  -7.393885e-01  6.414578e-01  5.590264e-04  5.523489e-04  5.588098e-04  5.485249e-04  -7.320562e-01  6.498529e-01
3.724490e+00  -6.387281e-01  7.421431e-01  3.876651e-04  2.145551e-04  3.863125e-04  2.098056e-04  -6.297352e-01  7.498391e-01
3.826531e+00  -5.185992e-01  8.310055e-01  -1.399263e-04  -2.338643e-04  -1.431249e-04  -2.395975e-04  -5.079171e-01  8.376374e-01
3.928571e+00  -3.780951e-01  9.041450e-01  -1.304329e-03  -7.188515e-04  -1.310481e-03  -7.254594e-04  -3.657619e-01  9.092751e-01
4.030612e+00  -2.161697e-01  9.564084e-01  -3.575353e-03  -1.002844e-03  -3.586190e-03  -1.009809e-03  -2.023288e-01  9.595145e-01
4.132653e+00  -3.169408e-02  9.805156e-01  -7.728561e-03  -4.446372e-04  -7.746788e-03  -4.504841e-04  -1.666231e-02  9.809829e-01
4.234694e+00  1.761649e-01  9.653913e-01  -1.497886e-02  2.608534e-03  -1.500862e-02  2.607541e-03  1.917779e-01  9.625267e-01
4.336735e+00  4.064594e-01  8.928378e-01  -2.687360e-02  1.241781e-02  -2.692065e-02  1.243086e-02  4.215369e-01  8.859644e-01
4.438776e+00  6.509447e-01  7.307385e-01  -4.337222e-02  4.009631e-02  -4.344168e-02  4.014602e-02  6.635144e-01  7.195599e-01
4.540816e+00  8.724146e-01  4.209058e-01  -5.028489e-02  1.133595e-01  -5.036392e-02  1.135003e-01  8.793576e-01  4.067297e-01
4.642857e+00  9.177064e-01  -1.117374e-01  4.637818e-02  2.720456e-01  4.641084e-02  2.723733e-01  9.167296e-01  -1.227911e-01
4.744898e+00  3.901072e-01  -6.237369e-01  5.130718e-01  2.760765e-01  5.136229e-01  2.764105e-01  3.921137e-01  -6.237441e-01
4.846939e+00  -1.963857e-01  -3.034850e-01  6.794396e-01  -5.151610e-01  6.801602e-01  -5.156648e-01  -1.843290e-01  -3.129946e-01
4.948980e+00  -1.247661e-01  4.712268e-03  -9.556870e-02  -9.194312e-01  -9.563304e-02  -9.203181e-01  -1.256518e-01  -9.072311e-03
5.051020e+00  2.030249e-02  -6.009507e-02  -8.095236e-01  -4.594175e-01  -8.102344e-01  -4.598477e-01  2.046503e-02  -6.128477e-02
5.153061e+00  -2.358984e-01  -3.513852e-01  -7.196146e-01  4.010470e-01  -7.202115e-01  4.013578e-01  -2.215963e-01  -3.608320e-01
5.255102e+00  -7.700663e-01  -2.254383e-02  -5.098881e-02  5.254319e-01  -5.103744e-02  5.258128e-01  -7.686793e-01  -4.650729e-02
5.357143e+00  -7.307361e-01  5.324771e-01  1.567721e-01  2.438916e-01  1.568639e-01  2.440439e-01  -7.423289e-01  5.154335e-01
5.459184e+00  -4.536217e-01  8.298213e-01  1.420290e-01  8.734030e-02  1.420936e-01  8.738080e-02  -4.673455e-01  8.217235e-01
5.561224e+00  -1.672958e-01  9.469097e-01  1.016779e-01  2.242711e-02  1.017021e-01  2.242891e-02  -1.792009e-01  9.444110e-01
5.663265e+00  8.432284e-02  9.654607e-01  7.048826e-02  -4.295830e-03  7.047928e-02  -4.303991e-03  7.499856e-02  9.659927e-01
5.765306e+00  2.984237e-01  9.258982e-01  5.011569e-02  -1.676371e-02  5.007487e-02  -1.676895e-02  2.914603e-01  9.279489e-01
5.867347e+00  4.791560e-01  8.453767e-01  3.823484e-02  -2.817927e-02  3.814372e-02  -2.816491e-02  4.740733e-01  8.482088e-01
5.969388e+00  6.038814e-01  6.972450e-01  6.237472e-03  -8.053937e-02  6.012481e-03  -8.027248e-02  6.008468e-01  7.015739e-01
6.071429e+00  7.110189e-01  6.797989e-01  -1.290345e-02  1.312375e-02  -1.274017e-02  1.315251e-02  7.095403e-01  6.814868e-01
6.173469e+00  8.233855e-01  5.487735e-01  2.338515e-04  5.622542e-03  3.074105e-04  5.616602e-03  8.222226e-01  5.504098e-01
6.275510e+00  8.993534e-01  4.162202e-01  1.799293e-03  3.484237e-03  1.845219e-03  3.475732e-03  8.986162e-01  4.176667e-01
6.377551e+00  9.513044e-01  2.815989e-01  2.017654e-03  2.987659e-03  2.050622e-03  2.979362e-03  9.508806e-01  2.828523e-01
6.479592e+00  9.821763e-01  1.464301e-01  2.110885e-03  3.012244e-03  2.136482e-03  3.004489e-03  9.819713e-01  1.475409e-01
6.581633e+00  9.937049e-01  1.259382e-02  2.298813e-03  3.174125e-03  2.319693e-03  3.166835e-03  9.936633e-01  1.363144e-02
6.683673e+00  9.873300e-01  -1.180786e-01  2.601294e-03  3.322407e-03  2.618860e-03  3.315448e-03  9.874348e-01  -1.170433e-01
6.785714e+00  9.644117e-01  -2.438938e-01  2.993682e-03  3.397008e-03  3.008705e-03  3.390287e-03  9.646779e-01  -2.427991e-01
6.887755e+00  9.263038e-01  -3.633187e-01  3.446589e-03  3.377901e-03  3.459483e-03  3.371402e-03  9.267719e-01  -3.621194e-01
6.989796e+00  8.743828e-01  -4.749876e-01  3.937519e-03  3.263605e-03  3.948477e-03  3.257416e-03  8.751109e-01  -4.736590e-01
7.091837e+00  8.100552e-01  -5.777038e-01  4.454930e-03  3.060581e-03  4.464006e-03  3.054925e-03  8.111120e-01  -5.762444e-01
7.193878e+00  7.347540e-01  -6.704395e-01  5.001018e-03  2.776724e-03  5.008178e-03  2.772016e-03  7.362119e-01  -6.688717e-01
7.295918e+00  6.499268e-01  -7.523324e-01  5.596210e-03  2.415376e-03  5.601373e-03  2.412311e-03  6.518553e-01  -7.507019e-01
7.397959e+00  5.570146e-01  -8.226767e-01  6.288738e-03  1.965939e-03  6.291841e-03  1.965678e-03  5.594745e-01  -8.210505e-01
7.500000e+00  4.574181e-01  -8.808985e-01  7.176279e-03  1.381817e-03  7.177421e-03  1.386356e-03  4.604555e-01  -8.793618e-01
