! Generated by EMerge - 2-port S-parameters
! File generated: 2026-03-04 05:49 
! --- Coupled-Line BPF 5000 MHz OPT ---
! Substrate: RO4003C
! h = 0.508 mm
! W50 = 1.1 mm, Lfeed = 5 mm
! L1 = 8.93 mm, S1 = 0.09900000000000002 mm, W1 = 0.76 mm
! L2 = 8.93 mm, S2 = 0.09900000000000002 mm, W2 = 1.08 mm
! Run time = 0.98 min
# GHZ S RI R 50
2.500000e+00  -7.929468e-01  -5.676445e-01  3.427862e-04  -5.790393e-04  3.415350e-04  -5.781054e-04  -7.892894e-01  -5.727666e-01
2.602041e+00  -8.530150e-01  -4.712145e-01  3.139971e-04  -6.890516e-04  3.126997e-04  -6.878114e-04  -8.498607e-01  -4.769297e-01
2.704082e+00  -9.021548e-01  -3.669198e-01  2.726042e-04  -8.219105e-04  2.712950e-04  -8.203010e-04  -8.996025e-01  -3.731855e-01
2.806122e+00  -9.391888e-01  -2.558102e-01  2.120139e-04  -9.855055e-04  2.107433e-04  -9.834529e-04  -9.373368e-01  -2.625683e-01
2.908163e+00  -9.629935e-01  -1.390942e-01  1.214949e-04  -1.189842e-03  1.203359e-04  -1.187261e-03  -9.619376e-01  -1.462700e-01
3.010204e+00  -9.725093e-01  -1.814133e-02  -1.594083e-05  -1.447176e-03  -1.688448e-05  -1.443967e-03  -9.723407e-01  -2.564245e-02
3.112245e+00  -9.667485e-01  1.055136e-01  -2.266733e-04  -1.771864e-03  -2.272544e-04  -1.767916e-03  -9.675509e-01  9.779934e-02
3.214286e+00  -9.447995e-01  2.301642e-01  -5.511537e-04  -2.179641e-03  -5.511640e-04  -2.174829e-03  -9.466455e-01  2.223704e-01
3.316327e+00  -9.058260e-01  3.539202e-01  -1.050968e-03  -2.685714e-03  -1.050112e-03  -2.679904e-03  -9.087721e-01  3.462035e-01
3.418367e+00  -8.490599e-01  4.746848e-01  -1.819630e-03  -3.300537e-03  -1.817488e-03  -3.293593e-03  -8.531398e-01  4.672269e-01
3.520408e+00  -7.737855e-01  5.901144e-01  -2.999307e-03  -4.020919e-03  -2.995276e-03  -4.012729e-03  -7.790005e-01  5.831223e-01
3.622449e+00  -6.793132e-01  6.975465e-01  -4.807038e-03  -4.811715e-03  -4.800248e-03  -4.802229e-03  -6.856191e-01  6.912529e-01
3.724490e+00  -5.649413e-01  7.938755e-01  -7.576208e-03  -5.567978e-03  -7.565384e-03  -5.557297e-03  -5.722301e-01  7.885345e-01
3.826531e+00  -4.299072e-01  8.753306e-01  -1.182203e-02  -6.035367e-03  -1.180530e-02  -6.023925e-03  -4.379801e-01  8.712077e-01
3.928571e+00  -2.733389e-01  9.370773e-01  -1.834226e-02  -5.638005e-03  -1.831681e-02  -5.626948e-03  -2.818675e-01  9.344254e-01
4.030612e+00  -9.425161e-02  9.724702e-01  -2.835684e-02  -3.091978e-03  -2.831848e-02  -3.083978e-03  -1.027236e-01  9.714758e-01
4.132653e+00  1.082427e-01  9.715836e-01  -4.362770e-02  4.501509e-03  -4.357029e-02  4.500421e-03  1.005959e-01  9.722470e-01
4.234694e+00  3.338810e-01  9.181471e-01  -6.616027e-02  2.387848e-02  -6.607546e-02  2.385463e-02  3.281504e-01  9.200101e-01
4.336735e+00  5.767132e-01  7.828958e-01  -9.534669e-02  7.113683e-02  -9.522691e-02  7.105856e-02  5.742229e-01  7.844150e-01
4.438776e+00  8.050511e-01  5.109233e-01  -1.114237e-01  1.833390e-01  -1.112833e-01  1.831338e-01  8.063365e-01  5.081419e-01
4.540816e+00  8.772595e-01  3.232156e-02  2.294937e-03  4.079690e-01  2.313777e-03  4.075125e-01  8.768250e-01  1.811156e-02
4.642857e+00  4.591157e-01  -4.182422e-01  5.278307e-01  4.843759e-01  5.272806e-01  4.838273e-01  4.371791e-01  -4.382227e-01
4.744898e+00  1.901634e-03  -2.322721e-01  8.928622e-01  -1.865854e-01  8.919162e-01  -1.864249e-01  -3.142396e-02  -2.257378e-01
4.846939e+00  -2.009549e-02  -4.412911e-02  5.004674e-01  -8.022253e-01  4.999274e-01  -8.014251e-01  -3.339927e-02  -2.448012e-02
4.948980e+00  -3.539452e-02  1.686746e-04  -1.375137e-01  -9.382117e-01  -1.374103e-01  -9.372788e-01  -3.555863e-02  7.303176e-03
5.051020e+00  -3.399363e-02  5.161932e-02  -6.885325e-01  -6.497250e-01  -6.878959e-01  -6.490802e-01  -4.426747e-02  4.379558e-02
5.153061e+00  1.786822e-02  -1.059292e-02  -9.430578e-01  -6.616229e-02  -9.421926e-01  -6.606982e-02  -1.605693e-02  -1.157258e-02
5.255102e+00  -1.715653e-01  -2.171997e-01  -6.793859e-01  5.813547e-01  -6.787719e-01  5.808675e-01  -2.098844e-01  -1.827656e-01
5.357143e+00  -6.331755e-01  -1.768217e-02  -2.581631e-02  6.830570e-01  -2.577555e-02  6.824970e-01  -6.343420e-01  3.487249e-02
5.459184e+00  -6.699420e-01  5.051420e-01  2.502158e-01  3.491928e-01  2.500351e-01  3.489270e-01  -6.466488e-01  5.370164e-01
5.561224e+00  -4.057875e-01  8.221668e-01  2.339890e-01  1.240892e-01  2.338373e-01  1.240103e-01  -3.821911e-01  8.345873e-01
5.663265e+00  -1.114520e-01  9.405571e-01  1.705572e-01  2.508763e-02  1.704715e-01  2.508510e-02  -9.419379e-02  9.431931e-01
5.765306e+00  1.456665e-01  9.496564e-01  1.189614e-01  -1.595374e-02  1.189348e-01  -1.592900e-02  1.566093e-01  9.484185e-01
5.867347e+00  3.600904e-01  8.971753e-01  8.383019e-02  -3.475737e-02  8.386348e-02  -3.472644e-02  3.661475e-01  8.950230e-01
5.969388e+00  5.360741e-01  7.989282e-01  6.061155e-02  -5.438189e-02  6.075993e-02  -5.437540e-02  5.387732e-01  7.969553e-01
6.071429e+00  5.864043e-01  7.221659e-01  -4.861543e-02  -2.580950e-02  -4.881119e-02  -2.628944e-02  5.831584e-01  7.219867e-01
6.173469e+00  7.670362e-01  6.208044e-01  9.774834e-03  -6.291205e-03  9.630843e-03  -6.331116e-03  7.649130e-01  6.235137e-01
6.275510e+00  8.609421e-01  4.877186e-01  1.000040e-02  -9.679282e-03  9.913729e-03  -9.689315e-03  8.586130e-01  4.919955e-01
6.377551e+00  9.260135e-01  3.531469e-01  7.327500e-03  -9.482299e-03  7.263858e-03  -9.485827e-03  9.238595e-01  3.589465e-01
6.479592e+00  9.681662e-01  2.176915e-01  5.013850e-03  -8.266211e-03  4.961595e-03  -8.267782e-03  9.665904e-01  2.248220e-01
6.581633e+00  9.898829e-01  8.305504e-02  3.364018e-03  -6.809300e-03  3.317664e-03  -6.810055e-03  9.892009e-01  9.125162e-02
6.683673e+00  9.929361e-01  -4.899537e-02  2.295237e-03  -5.396578e-03  2.251688e-03  -5.396615e-03  9.933689e-01  -4.003378e-02
6.785714e+00  9.788516e-01  -1.768139e-01  1.677185e-03  -4.137678e-03  1.634486e-03  -4.136671e-03  9.805322e-01  -1.674017e-01
6.887755e+00  9.490536e-01  -2.989078e-01  1.395611e-03  -3.069250e-03  1.352418e-03  -3.066649e-03  9.520356e-01  -2.893564e-01
6.989796e+00  9.049264e-01  -4.139388e-01  1.362950e-03  -2.195305e-03  1.318266e-03  -2.190400e-03  9.091931e-01  -4.045441e-01
7.091837e+00  8.478433e-01  -5.207193e-01  1.517698e-03  -1.505553e-03  1.470719e-03  -1.497468e-03  8.533171e-01  -5.117518e-01
7.193878e+00  7.791790e-01  -6.182092e-01  1.822637e-03  -9.851080e-04  1.772645e-03  -9.727478e-04  7.857302e-01  -6.099054e-01
7.295918e+00  7.003106e-01  -7.055109e-01  2.265231e-03  -6.213096e-04  2.211496e-03  -6.032415e-04  7.077673e-01  -6.980670e-01
7.397959e+00  6.126090e-01  -7.818624e-01  2.862691e-03  -4.117298e-04  2.804377e-03  -3.859367e-04  6.207661e-01  -7.754297e-01
7.500000e+00  5.174182e-01  -8.466218e-01  3.676491e-03  -3.799888e-04  3.612542e-03  -3.433554e-04  5.260466e-01  -8.413025e-01
