! Generated by EMerge - 2-port S-parameters
! File generated: 2026-03-04 05:40 
! --- Coupled-Line BPF 5000 MHz OPT ---
! Substrate: RO4003C
! h = 0.508 mm
! W50 = 1.1 mm, Lfeed = 5 mm
! L1 = 8.93 mm, S1 = 0.10515040859283277 mm, W1 = 0.7398958524349439 mm
! L2 = 8.93 mm, S2 = 0.10515040859283277 mm, W2 = 1.079359083396226 mm
! Run time = 0.88 min
# GHZ S RI R 50
2.500000e+00  -7.692553e-01  -5.997673e-01  3.392219e-04  -5.427310e-04  3.381752e-04  -5.392357e-04  -7.766265e-01  -5.899849e-01
2.602041e+00  -8.326553e-01  -5.067543e-01  3.155695e-04  -6.491327e-04  3.148099e-04  -6.449811e-04  -8.392742e-01  -4.954753e-01
2.704082e+00  -8.857072e-01  -4.054738e-01  2.806101e-04  -7.783726e-04  2.802636e-04  -7.734840e-04  -8.913095e-01  -3.927169e-01
2.806122e+00  -9.271876e-01  -2.968744e-01  2.281550e-04  -9.384830e-04  2.283824e-04  -9.327716e-04  -9.314941e-01  -2.826999e-01
2.908163e+00  -9.559105e-01  -1.820677e-01  1.479985e-04  -1.139759e-03  1.490059e-04  -1.133135e-03  -9.586321e-01  -1.665818e-01
3.010204e+00  -9.707372e-01  -6.233258e-02  2.380593e-05  -1.394974e-03  2.585887e-05  -1.387345e-03  -9.715802e-01  -4.569207e-02
3.112245e+00  -9.705854e-01  6.087791e-02  -1.700322e-04  -1.719351e-03  -1.665888e-04  -1.710627e-03  -9.692576e-01  7.846227e-02
3.214286e+00  -9.544343e-01  1.859284e-01  -4.731188e-04  -2.129995e-03  -4.678332e-04  -2.120099e-03  -9.506509e-01  2.041880e-01
3.316327e+00  -9.213253e-01  3.109872e-01  -9.462059e-04  -2.644223e-03  -9.384798e-04  -2.633103e-03  -9.148144e-01  3.295920e-01
3.418367e+00  -8.703563e-01  4.340032e-01  -1.682179e-03  -3.275644e-03  -1.671210e-03  -3.263305e-03  -8.608643e-01  4.525566e-01
3.520408e+00  -8.006665e-01  5.526651e-01  -2.823141e-03  -4.025724e-03  -2.807841e-03  -4.012273e-03  -7.879625e-01  5.706972e-01
3.622449e+00  -7.114106e-01  6.643322e-01  -4.587326e-03  -4.866080e-03  -4.566196e-03  -4.851823e-03  -6.952898e-01  6.812869e-01
3.724490e+00  -6.017179e-01  7.659120e-01  -7.311885e-03  -5.701468e-03  -7.282831e-03  -5.687083e-03  -5.820059e-01  7.811259e-01
3.826531e+00  -4.706358e-01  8.536438e-01  -1.152093e-02  -6.291225e-03  -1.148099e-02  -6.278088e-03  -4.471959e-01  8.663087e-01
3.928571e+00  -3.170656e-01  9.227067e-01  -1.803130e-02  -6.078049e-03  -1.797625e-02  -6.068898e-03  -2.898171e-01  9.318024e-01
4.030612e+00  -1.397242e-01  9.664775e-01  -2.810256e-02  -3.800975e-03  -2.802634e-02  -3.801252e-03  -1.086919e-01  9.706545e-01
4.132653e+00  6.272013e-02  9.750574e-01  -4.357793e-02  3.418696e-03  -4.347215e-02  3.397930e-03  9.727042e-02  9.724283e-01
4.234694e+00  2.907490e-01  9.321548e-01  -6.662784e-02  2.233307e-02  -6.648219e-02  2.226858e-02  3.279355e-01  9.199346e-01
4.336735e+00  5.397860e-01  8.081788e-01  -9.695699e-02  6.922328e-02  -9.676544e-02  6.906455e-02  5.770216e-01  7.821587e-01
4.438776e+00  7.806294e-01  5.464829e-01  -1.151815e-01  1.819562e-01  -1.149779e-01  1.815944e-01  8.103682e-01  5.010386e-01
4.540816e+00  8.737777e-01  7.017326e-02  -3.523133e-03  4.101373e-01  -3.541186e-03  4.094056e-01  8.757366e-01  5.112845e-03
4.642857e+00  4.728309e-01  -3.978321e-01  5.251958e-01  4.913203e-01  5.243127e-01  4.905216e-01  4.259653e-01  -4.444806e-01
4.744898e+00  7.677513e-03  -2.300423e-01  8.951988e-01  -1.789136e-01  8.938214e-01  -1.786341e-01  -3.290726e-02  -2.240249e-01
4.846939e+00  -2.435742e-02  -3.992177e-02  5.078808e-01  -7.977569e-01  5.071432e-01  -7.966186e-01  -3.191947e-02  -3.101843e-02
4.948980e+00  -3.876107e-02  8.699518e-03  -1.289791e-01  -9.393543e-01  -1.288265e-01  -9.380943e-01  -4.118857e-02  -5.853948e-04
5.051020e+00  -3.508243e-02  5.956287e-02  -6.819891e-01  -6.560978e-01  -6.811530e-01  -6.552600e-01  -5.250505e-02  4.385101e-02
5.153061e+00  1.640009e-02  -2.227487e-03  -9.425210e-01  -7.686986e-02  -9.414209e-01  -7.675647e-02  -1.542699e-02  -4.388628e-03
5.255102e+00  -1.689043e-01  -2.063636e-01  -6.895740e-01  5.743577e-01  -6.888083e-01  5.737436e-01  -1.948810e-01  -1.845505e-01
5.357143e+00  -6.265589e-01  -1.143065e-02  -3.411147e-02  6.889688e-01  -3.406817e-02  6.882654e-01  -6.279359e-01  1.411161e-02
5.459184e+00  -6.637509e-01  5.090187e-01  2.505647e-01  3.551946e-01  2.503266e-01  3.548561e-01  -6.561718e-01  5.201641e-01
5.561224e+00  -3.989650e-01  8.245291e-01  2.364046e-01  1.265951e-01  2.361942e-01  1.264863e-01  -3.947395e-01  8.270951e-01
5.663265e+00  -1.041346e-01  9.410844e-01  1.726995e-01  2.569981e-02  1.725586e-01  2.568440e-02  -1.045550e-01  9.412897e-01
5.765306e+00  1.531973e-01  9.483498e-01  1.205259e-01  -1.617664e-02  1.204389e-01  -1.615735e-02  1.493575e-01  9.490750e-01
5.867347e+00  3.676572e-01  8.940160e-01  8.490513e-02  -3.534648e-02  8.485635e-02  -3.531340e-02  3.617074e-01  8.964652e-01
5.969388e+00  5.434289e-01  7.936136e-01  6.128070e-02  -5.522281e-02  6.127176e-02  -5.517744e-02  5.365014e-01  7.982658e-01
6.071429e+00  5.921525e-01  7.169918e-01  -4.796972e-02  -2.554002e-02  -4.794419e-02  -2.563403e-02  5.846661e-01  7.230999e-01
6.173469e+00  7.732895e-01  6.130676e-01  1.010137e-02  -6.864732e-03  1.006761e-02  -6.884154e-03  7.659539e-01  6.221174e-01
6.275510e+00  8.663951e-01  4.781117e-01  1.017102e-02  -1.023414e-02  1.014291e-02  -1.024259e-02  8.599828e-01  4.894009e-01
6.377551e+00  9.303109e-01  3.418694e-01  7.398236e-03  -1.000469e-02  7.372113e-03  -1.001043e-02  9.252432e-01  3.551345e-01
6.479592e+00  9.710072e-01  2.049473e-01  5.011690e-03  -8.754635e-03  4.985047e-03  -8.759091e-03  9.676514e-01  2.199028e-01
6.581633e+00  9.910051e-01  6.909147e-02  3.305515e-03  -7.266106e-03  3.276678e-03  -7.269107e-03  9.896641e-01  8.541088e-02
6.683673e+00  9.921234e-01  -6.388563e-02  2.190660e-03  -5.825231e-03  2.158441e-03  -5.825963e-03  9.930325e-01  -4.656528e-02
6.785714e+00  9.759436e-01  -1.923009e-01  1.532635e-03  -4.541511e-03  1.496144e-03  -4.538787e-03  9.792678e-01  -1.743698e-01
6.887755e+00  9.439523e-01  -3.146355e-01  1.214369e-03  -3.450925e-03  1.172912e-03  -3.443231e-03  9.497847e-01  -2.965012e-01
6.989796e+00  8.976001e-01  -4.295381e-01  1.146380e-03  -2.556642e-03  1.099394e-03  -2.542079e-03  9.059612e-01  -4.116138e-01
7.091837e+00  8.383277e-01  -5.358216e-01  1.265818e-03  -1.847566e-03  1.212841e-03  -1.823712e-03  8.491659e-01  -5.185150e-01
7.193878e+00  7.675755e-01  -6.324583e-01  1.534392e-03  -1.308179e-03  1.475064e-03  -1.271825e-03  7.807695e-01  -6.161604e-01
7.295918e+00  6.867827e-01  -7.185755e-01  1.938433e-03  -9.254385e-04  1.872548e-03  -8.721366e-04  7.021448e-01  -7.036491e-01
7.397959e+00  5.973774e-01  -7.934467e-01  2.493472e-03  -6.968362e-04  2.421155e-03  -6.200490e-04  6.146578e-01  -7.802159e-01
7.500000e+00  5.007552e-01  -8.564749e-01  3.257849e-03  -6.461983e-04  3.180081e-03  -5.356190e-04  5.196460e-01  -8.452148e-01
