! Generated by EMerge - 4-port S-parameters
! File generated: 2026-02-16 17:32 
! --- Branch-Line Coupler 2000 MHz ---
! Substrate: RO4003C
! h = 0.508 mm
! W50 = 1.1 mm, W35 = 1.85 mm
! L35 = 22.2 mm, L50 = 22.2 mm
! L_feed = 5 mm
! Run time = 1.56 min
# GHZ S RI R 50
1.000000e-01    -4.857445e-01 1.526459e-02 4.877776e-01 -6.809797e-02 4.868816e-01 -7.659818e-02 4.858046e-01 -8.918228e-02
                4.877778e-01 -6.809819e-02 -4.857517e-01 1.525686e-02 4.858101e-01 -8.920277e-02 4.868694e-01 -7.656749e-02
                4.868763e-01 -7.659731e-02 4.858046e-01 -8.920154e-02 -4.857842e-01 1.532724e-02 4.877678e-01 -6.813855e-02
                4.858049e-01 -8.918245e-02 4.868696e-01 -7.656743e-02 4.877735e-01 -6.813947e-02 -4.857572e-01 1.528090e-02
1.743590e-01    -4.909107e-01 2.836379e-02 4.752409e-01 -1.167658e-01 4.724732e-01 -1.315551e-01 4.692094e-01 -1.534458e-01
                4.752409e-01 -1.167661e-01 -4.909333e-01 2.835305e-02 4.692043e-01 -1.534791e-01 4.724590e-01 -1.314991e-01
                4.724680e-01 -1.315537e-01 4.691991e-01 -1.534770e-01 -4.909672e-01 2.847932e-02 4.752023e-01 -1.168288e-01
                4.692096e-01 -1.534461e-01 4.724593e-01 -1.314990e-01 4.752078e-01 -1.168304e-01 -4.909511e-01 2.839957e-02
2.487179e-01    -4.980789e-01 4.414109e-02 4.566781e-01 -1.623931e-01 4.509663e-01 -1.834135e-01 4.442988e-01 -2.145247e-01
                4.566781e-01 -1.623936e-01 -4.981241e-01 4.413145e-02 4.442784e-01 -2.145669e-01 4.509504e-01 -1.833283e-01
                4.509614e-01 -1.834114e-01 4.442736e-01 -2.145639e-01 -4.981579e-01 4.431891e-02 4.565985e-01 -1.624667e-01
                4.442990e-01 -2.145251e-01 4.509507e-01 -1.833281e-01 4.566038e-01 -1.624689e-01 -4.981585e-01 4.420742e-02
3.230769e-01    -5.063186e-01 6.341084e-02 4.329825e-01 -2.040031e-01 4.231780e-01 -2.311557e-01 4.118493e-01 -2.713575e-01
                4.329823e-01 -2.040037e-01 -5.063923e-01 6.340747e-02 4.118099e-01 -2.714034e-01 4.231623e-01 -2.310363e-01
                4.231734e-01 -2.311531e-01 4.118057e-01 -2.713997e-01 -5.064221e-01 6.366278e-02 4.328537e-01 -2.040716e-01
                4.118494e-01 -2.713580e-01 4.231626e-01 -2.310361e-01 4.328587e-01 -2.040744e-01 -5.064449e-01 6.352184e-02
3.974359e-01    -5.145119e-01 8.669645e-02 4.052203e-01 -2.409005e-01 3.900686e-01 -2.740275e-01 3.727650e-01 -3.231376e-01
                4.052200e-01 -2.409012e-01 -5.146186e-01 8.670502e-02 3.727046e-01 -3.231810e-01 3.900568e-01 -2.738681e-01
                3.900644e-01 -2.740244e-01 3.727010e-01 -3.231767e-01 -5.146376e-01 8.703531e-02 4.050390e-01 -2.409459e-01
                3.727650e-01 -3.231382e-01 3.900572e-01 -2.738680e-01 4.050435e-01 -2.409491e-01 -5.146877e-01 8.686779e-02
4.717949e-01    -5.214440e-01 1.142092e-01 3.745400e-01 -2.726895e-01 3.526475e-01 -3.115461e-01 3.279835e-01 -3.693186e-01
                3.745395e-01 -2.726902e-01 -5.215870e-01 1.142353e-01 3.279016e-01 -3.693527e-01 3.526455e-01 -3.113410e-01
                3.526437e-01 -3.115426e-01 3.278987e-01 -3.693479e-01 -5.215851e-01 1.146473e-01 3.743079e-01 -2.726926e-01
                3.279834e-01 -3.693192e-01 3.526460e-01 -3.113409e-01 3.743120e-01 -2.726963e-01 -5.216673e-01 1.144566e-01
5.461538e-01    -5.258838e-01 1.458560e-01 3.420903e-01 -2.992618e-01 3.118890e-01 -3.434766e-01 2.783903e-01 -4.095862e-01
                3.420897e-01 -2.992625e-01 -5.260654e-01 1.459047e-01 2.782880e-01 -4.096040e-01 3.119051e-01 -3.432202e-01
                3.118856e-01 -3.434726e-01 2.782859e-01 -4.095987e-01 -5.260293e-01 1.464038e-01 3.418145e-01 -2.992035e-01
                2.783901e-01 -4.095869e-01 3.119057e-01 -3.432202e-01 3.418182e-01 -2.992075e-01 -5.261484e-01 1.461937e-01
6.205128e-01    -5.266457e-01 1.812652e-01 3.089574e-01 -3.207646e-01 2.686665e-01 -3.697831e-01 2.247524e-01 -4.438054e-01
                3.089566e-01 -3.207654e-01 -5.268685e-01 1.813409e-01 2.246329e-01 -4.437998e-01 2.687115e-01 -3.694708e-01
                2.686637e-01 -3.697788e-01 2.246317e-01 -4.437942e-01 -5.267815e-01 1.819303e-01 3.086502e-01 -3.206272e-01
                2.247521e-01 -4.438061e-01 2.687122e-01 -3.694708e-01 3.086534e-01 -3.206315e-01 -5.269419e-01 1.817051e-01
6.948718e-01    -5.226316e-01 2.198207e-01 2.761228e-01 -3.375611e-01 2.237102e-01 -3.905665e-01 1.676747e-01 -4.719513e-01
                2.761219e-01 -3.375618e-01 -5.228982e-01 2.199268e-01 1.675430e-01 -4.719155e-01 2.237972e-01 -3.901951e-01
                2.237080e-01 -3.905619e-01 1.675427e-01 -4.719097e-01 -5.227413e-01 2.206066e-01 2.758013e-01 -3.373291e-01
                1.676742e-01 -4.719520e-01 2.237980e-01 -3.901952e-01 2.758041e-01 -3.373337e-01 -5.229470e-01 2.203711e-01
7.692308e-01    -5.128521e-01 2.606912e-01 2.444408e-01 -3.501919e-01 1.775871e-01 -4.059947e-01 1.075800e-01 -4.940321e-01
                2.444397e-01 -3.501925e-01 -5.131669e-01 2.608307e-01 1.074431e-01 -4.939601e-01 1.777317e-01 -4.055629e-01
                1.775855e-01 -4.059899e-01 1.074437e-01 -4.939543e-01 -5.129181e-01 2.615971e-01 2.441264e-01 -3.498533e-01
                1.075793e-01 -4.940328e-01 1.777325e-01 -4.055632e-01 2.441288e-01 -3.498580e-01 -5.131732e-01 2.613567e-01
8.435897e-01    -4.964367e-01 3.028479e-01 2.146292e-01 -3.593472e-01 1.307026e-01 -4.162322e-01 4.471033e-02 -5.100090e-01
                2.146279e-01 -3.593478e-01 -4.968061e-01 3.030239e-01 4.457745e-02 -5.098960e-01 1.309229e-01 -4.157415e-01
                1.307016e-01 -4.162273e-01 4.457900e-02 -5.098902e-01 -4.964416e-01 3.038684e-01 2.143474e-01 -3.588942e-01
                4.470957e-02 -5.100097e-01 1.309237e-01 -4.157419e-01 2.143494e-01 -3.588990e-01 -4.967499e-01 3.036290e-01
9.179487e-01    -4.726385e-01 3.450639e-01 1.872654e-01 -3.658544e-01 8.332180e-02 -4.213704e-01 -2.085036e-02 -5.197139e-01
                1.872640e-01 -3.658549e-01 -4.730723e-01 3.452808e-01 -2.096799e-02 -5.195567e-01 8.363803e-02 -4.208258e-01
                8.332143e-02 -4.213655e-01 -2.096546e-02 -5.195511e-01 -4.725666e-01 3.461888e-01 1.870449e-01 -3.652840e-01
                -2.085125e-02 -5.197145e-01 8.363880e-02 -4.208263e-01 1.870465e-01 -3.652889e-01 -4.729315e-01 3.459573e-01
9.923077e-01    -4.408480e-01 3.858922e-01 1.627771e-01 -3.706827e-01 3.561064e-02 -4.213595e-01 -8.913183e-02 -5.227654e-01
                1.627755e-01 -3.706831e-01 -4.413592e-01 3.861573e-01 -8.922066e-02 -5.225632e-01 3.604544e-02 -4.207702e-01
                3.561096e-02 -4.213546e-01 -8.921715e-02 -5.225579e-01 -4.406861e-01 3.871071e-01 1.626494e-01 -3.699981e-01
                -8.913285e-02 -5.227660e-01 3.604616e-02 -4.207709e-01 1.626508e-01 -3.700030e-01 -4.411107e-01 3.868913e-01
1.066667e+00    -4.006273e-01 4.236222e-01 1.414144e-01 -3.749662e-01 -1.229664e-02 -4.159411e-01 -1.602037e-01 -5.184819e-01
                1.414126e-01 -3.749664e-01 -4.012331e-01 4.239478e-01 -1.602480e-01 -5.182373e-01 -1.171884e-02 -4.153223e-01
                -1.229559e-02 -4.159363e-01 -1.602435e-01 -5.182324e-01 -4.003665e-01 4.249091e-01 1.414131e-01 -3.741777e-01
                -1.602048e-01 -5.184823e-01 -1.171822e-02 -4.153232e-01 1.414142e-01 -3.741827e-01 -4.008535e-01 4.247178e-01
1.141026e+00    -3.517871e-01 4.562200e-01 1.231860e-01 -3.800365e-01 -6.019334e-02 -4.045868e-01 -2.340591e-01 -5.057942e-01
                1.231840e-01 -3.800366e-01 -3.525078e-01 4.566269e-01 -2.340413e-01 -5.055147e-01 -5.944706e-02 -4.039610e-01
                -6.019154e-02 -4.045822e-01 -2.340358e-01 -5.055105e-01 -3.514241e-01 4.575583e-01 1.233454e-01 -3.791628e-01
                -2.340604e-01 -5.057945e-01 -5.944659e-02 -4.039621e-01 1.233465e-01 -3.791679e-01 -3.519751e-01 4.574018e-01
1.215385e+00    -2.945298e-01 4.812693e-01 1.077379e-01 -3.874500e-01 -1.076406e-01 -3.864551e-01 -3.104346e-01 -4.831722e-01
                1.077358e-01 -3.874500e-01 -2.953869e-01 4.817904e-01 -3.103363e-01 -4.828719e-01 -1.067009e-01 -3.858545e-01
                -1.076380e-01 -3.864507e-01 -3.103299e-01 -4.828685e-01 -2.940679e-01 4.826376e-01 1.080918e-01 -3.865197e-01
                -3.104360e-01 -4.831724e-01 -1.067006e-01 -3.858557e-01 1.080927e-01 -3.865251e-01 -2.946833e-01 4.825273e-01
1.289744e+00    -2.296870e-01 4.959504e-01 9.415192e-02 -3.989705e-01 -1.537312e-01 -3.604020e-01 -3.885400e-01 -4.485984e-01
                9.414952e-02 -3.989702e-01 -2.306990e-01 4.966350e-01 -3.883438e-01 -4.482998e-01 -1.525762e-01 -3.598707e-01
                -1.537279e-01 -3.603982e-01 -3.883365e-01 -4.482975e-01 -2.291371e-01 4.973284e-01 9.473018e-02 -3.980236e-01
                -3.885416e-01 -4.485984e-01 -1.525762e-01 -3.598719e-01 9.473104e-02 -3.980293e-01 -2.298155e-01 4.972772e-01
1.364103e+00    -1.590693e-01 4.971320e-01 8.065219e-02 -4.164347e-01 -1.967669e-01 -3.251162e-01 -4.666814e-01 -3.996607e-01
                8.064952e-02 -4.164341e-01 -1.602441e-01 4.980496e-01 -4.663749e-01 -3.993973e-01 -1.953827e-01 -3.247118e-01
                -1.967628e-01 -3.251131e-01 -4.663669e-01 -3.993961e-01 -1.584504e-01 4.985038e-01 8.147743e-02 -4.155236e-01
                -4.666831e-01 -3.996606e-01 -1.953831e-01 -3.247130e-01 8.147821e-02 -4.155298e-01 -1.591879e-01 4.985254e-01
1.438462e+00    -8.589763e-02 4.817002e-01 6.426279e-02 -4.413815e-01 -2.338907e-01 -2.794952e-01 -5.418092e-01 -3.338875e-01
                6.425983e-02 -4.413805e-01 -8.721976e-02 4.829415e-01 -5.413907e-01 -3.337037e-01 -2.322784e-01 -2.792896e-01
                -2.338859e-01 -2.794931e-01 -5.413821e-01 -3.337041e-01 -8.523551e-02 4.830582e-01 6.534453e-02 -4.405703e-01
                -5.418109e-01 -3.338872e-01 -2.322792e-01 -2.792907e-01 6.534513e-02 -4.405773e-01 -8.602547e-02 4.831667e-01
1.512821e+00    -1.516247e-02 4.472751e-01 4.057886e-02 -4.743057e-01 -2.608385e-01 -2.234017e-01 -6.091417e-01 -2.494714e-01
                4.057566e-02 -4.743041e-01 -1.657686e-02 4.489459e-01 -6.086288e-01 -2.494203e-01 -2.590232e-01 -2.234775e-01
                -2.608333e-01 -2.234009e-01 -6.086200e-01 -2.494224e-01 -1.448666e-02 4.486238e-01 4.190718e-02 -4.736665e-01
                -6.091435e-01 -2.494708e-01 -2.590243e-01 -2.234782e-01 4.190739e-02 -4.736745e-01 -1.531929e-02 4.488329e-01
1.587179e+00    4.643796e-02 3.933704e-01 4.015979e-03 -5.135022e-01 -2.721748e-01 -1.588313e-01 -6.622161e-01 -1.464365e-01
                4.012641e-03 -5.134997e-01 4.504295e-02 3.955733e-01 -6.616543e-01 -1.465708e-01 -2.702150e-01 -1.592725e-01
                -2.721696e-01 -1.588320e-01 -6.616456e-01 -1.465749e-01 4.710012e-02 3.947287e-01 5.556136e-03 -5.131075e-01
                -6.622181e-01 -1.464356e-01 -2.702164e-01 -1.592726e-01 5.555577e-03 -5.131167e-01 4.623725e-02 3.950507e-01
1.661538e+00    9.147286e-02 3.226928e-01 -5.096396e-02 -5.538413e-01 -2.625121e-01 -9.115097e-02 -6.938551e-01 -2.794594e-02
                -5.096719e-02 -5.538378e-01 9.027273e-02 3.254941e-01 -6.933216e-01 -2.830175e-02 -2.605043e-01 -9.202595e-02
                -2.625074e-01 -9.115327e-02 -6.933135e-01 -2.830776e-02 9.210417e-02 3.240936e-01 -4.927227e-02 -5.537518e-01
                -6.938570e-01 -2.794470e-02 -2.605057e-01 -9.202525e-02 -4.927415e-02 -5.537623e-01 9.122509e-02 3.245390e-01
1.735897e+00    1.138671e-01 2.417093e-01 -1.274575e-01 -5.864075e-01 -2.289077e-01 -2.946955e-02 -6.982478e-01 9.912454e-02
                -1.274603e-01 -5.864029e-01 1.130854e-01 2.450971e-01 -6.978448e-01 9.854963e-02 -2.269799e-01 -3.081010e-02
                -2.289041e-01 -2.947332e-02 -6.978377e-01 9.854176e-02 1.144675e-01 2.431926e-01 -1.256927e-01 -5.866603e-01
                -6.982498e-01 9.912614e-02 -2.269809e-01 -3.080850e-02 -1.256966e-01 -5.866719e-01 1.135870e-01 2.437716e-01
1.810256e+00    1.113076e-01 1.594355e-01 -2.233966e-01 -6.001289e-01 -1.735909e-01 1.499102e-02 -6.733514e-01 2.253912e-01
                -2.233985e-01 -6.001233e-01 1.111694e-01 1.632893e-01 -6.731818e-01 2.246544e-01 -1.718818e-01 1.320561e-02
                -1.735889e-01 1.498621e-02 -6.731763e-01 2.246449e-01 1.118957e-01 1.610384e-01 -2.216406e-01 -6.007321e-01
                -6.733532e-01 2.253932e-01 -1.718820e-01 1.320803e-02 -2.216472e-01 -6.007442e-01 1.110303e-01 1.617626e-01
1.884615e+00    8.619138e-02 8.449800e-02 -3.303992e-01 -5.854362e-01 -1.051113e-01 3.256287e-02 -6.218343e-01 3.418922e-01
                -3.303997e-01 -5.854297e-01 8.685951e-02 8.859278e-02 -6.219685e-01 3.411042e-01 -1.037421e-01 3.040574e-02
                -1.051114e-01 3.255774e-02 -6.219649e-01 3.410936e-01 8.679902e-02 8.624538e-02 -3.287225e-01 -5.863756e-01
                -6.218359e-01 3.418946e-01 -1.037410e-01 3.040865e-02 -3.287320e-01 -5.863874e-01 8.597017e-02 8.712940e-02
1.958974e+00    4.399679e-02 2.235522e-02 -4.355621e-01 -5.380941e-01 -3.653320e-02 1.897171e-02 -5.494463e-01 4.428586e-01
                -4.355610e-01 -5.380874e-01 4.551949e-02 2.640770e-02 -5.498931e-01 4.421594e-01 -3.558541e-02 1.655086e-02
                -3.653539e-02 1.896714e-02 -5.498916e-01 4.421480e-01 4.465874e-02 2.425817e-02 -4.340196e-01 -5.393484e-01
                -5.494476e-01 4.428613e-01 -3.558272e-02 1.655372e-02 -4.340322e-01 -5.393589e-01 4.389873e-02 2.531715e-02
2.033333e+00    -9.735893e-03 -2.518070e-02 -5.253683e-01 -4.608787e-01 1.849005e-02 -2.298930e-02 -4.620009e-01 5.261849e-01
                -5.253654e-01 -4.608722e-01 -7.438107e-03 -2.144352e-02 -4.626992e-01 5.257058e-01 1.898035e-02 -2.555576e-02
                1.848614e-02 -2.299250e-02 -4.626999e-01 5.256941e-01 -8.987873e-03 -2.311947e-02 -5.240085e-01 -4.624300e-01
                -4.620019e-01 5.261879e-01 1.898463e-02 -2.555361e-02 -5.240237e-01 -4.624381e-01 -9.632512e-03 -2.187719e-02
2.107692e+00    -7.132366e-02 -5.809338e-02 -5.894793e-01 -3.625064e-01 4.952164e-02 -8.454323e-02 -3.634596e-01 5.915745e-01
                -5.894747e-01 -3.625007e-01 -6.843052e-02 -5.487385e-02 -3.642933e-01 5.914031e-01 4.955530e-02 -8.714589e-02
                4.951671e-02 -8.454448e-02 -3.642962e-01 5.913915e-01 -7.045949e-02 -5.587293e-02 -5.883580e-01 -3.643380e-01
                -3.634603e-01 5.915778e-01 4.956092e-02 -8.714510e-02 -5.883751e-01 -3.643432e-01 -7.093007e-02 -5.445615e-02
2.182051e+00    -1.385644e-01 -7.598924e-02 -6.229551e-01 -2.549439e-01 5.156291e-02 -1.536341e-01 -2.563100e-01 6.383645e-01
                -6.229493e-01 -2.549395e-01 -1.353041e-01 -7.338682e-02 -2.571384e-01 6.385243e-01 5.116493e-02 -1.561802e-01
                5.155781e-02 -1.536332e-01 -2.571434e-01 6.385132e-01 -1.375494e-01 -7.360936e-02 -6.221412e-01 -2.570267e-01
                -2.563102e-01 6.383680e-01 5.117139e-02 -1.561812e-01 -6.221592e-01 -2.570285e-01 -1.377846e-01 -7.205241e-02
2.256410e+00    -2.090219e-01 -7.744624e-02 -6.267380e-01 -1.503361e-01 2.553251e-02 -2.180069e-01 -1.432816e-01 6.648707e-01
                -6.267314e-01 -1.503334e-01 -2.056160e-01 -7.545766e-02 -1.439746e-01 6.653207e-01 2.474245e-02 -2.204203e-01
                2.552811e-02 -2.180039e-01 -1.439816e-01 6.653105e-01 -2.078123e-01 -7.491348e-02 -6.263051e-01 -1.526132e-01
                -1.432813e-01 6.648744e-01 2.474909e-02 -2.204234e-01 -6.263230e-01 -1.526117e-01 -2.077626e-01 -7.327748e-02
2.330769e+00    -2.787744e-01 -6.107374e-02 -6.066468e-01 -5.828738e-02 -2.274220e-02 -2.679249e-01 -2.859961e-02 6.694420e-01
                -6.066401e-01 -5.828620e-02 -2.753957e-01 -5.961903e-02 -2.906532e-02 6.700938e-01 -2.387531e-02 -2.701448e-01
                -2.274521e-02 -2.679203e-01 -2.907410e-02 6.700849e-01 -2.773200e-01 -5.841030e-02 -6.066544e-01 -6.066877e-02
                -2.859882e-02 6.694459e-01 -2.386916e-02 -2.701500e-01 -6.066714e-01 -6.066433e-02 -2.769609e-01 -5.677514e-02
2.405128e+00    -3.426536e-01 -2.707806e-02 -5.712163e-01 1.586465e-02 -8.468133e-02 -2.978909e-01 8.224700e-02 6.520194e-01
                -5.712099e-01 1.586438e-02 -3.394069e-01 -2.603946e-02 8.204962e-02 6.527643e-01 -8.610187e-02 -2.998712e-01
                -8.468252e-02 -2.978854e-01 8.203939e-02 6.527570e-01 -3.409066e-01 -2.432696e-02 -5.716913e-01 1.349227e-02
                8.224839e-02 6.520233e-01 -8.609678e-02 -2.998782e-01 -5.717068e-01 1.349907e-02 -3.402449e-01 -2.277680e-02
2.479487e+00    -3.956137e-01 2.200172e-02 -5.291307e-01 7.127466e-02 -1.515074e-01 -3.068723e-01 1.838643e-01 6.148682e-01
                -5.291249e-01 7.127323e-02 -3.925394e-01 2.274292e-02 1.839286e-01 6.156030e-01 -1.531562e-01 -3.085817e-01
                -1.515066e-01 -3.068664e-01 1.839173e-01 6.155974e-01 -3.935399e-01 2.477849e-02 -5.300589e-01 6.902946e-02
                1.838663e-01 6.148720e-01 -1.531526e-01 -3.085901e-01 -5.300727e-01 6.903797e-02 -3.926106e-01 2.616990e-02
2.553846e+00    -4.341164e-01 8.178598e-02 -4.872516e-01 1.104563e-01 -2.162035e-01 -2.971726e-01 2.723239e-01 5.620874e-01
                -4.872464e-01 1.104541e-01 -4.312085e-01 8.232521e-02 2.726096e-01 5.627313e-01 -2.180217e-01 -2.985941e-01
                -2.162008e-01 -2.971671e-01 2.725976e-01 5.627276e-01 -4.317022e-01 8.451513e-02 -4.885817e-01 1.084427e-01
                2.723265e-01 5.620910e-01 -2.180197e-01 -2.986035e-01 -4.885939e-01 1.084523e-01 -4.305589e-01 8.569375e-02
2.628205e+00    -4.567269e-01 1.472170e-01 -4.498119e-01 1.375775e-01 -2.743068e-01 -2.727374e-01 3.457472e-01 4.984534e-01
                -4.498075e-01 1.375747e-01 -4.539556e-01 1.476173e-01 3.461972e-01 4.989541e-01 -2.762389e-01 -2.738666e-01
                -2.743024e-01 -2.727327e-01 3.461848e-01 4.989523e-01 -4.539819e-01 1.498234e-01 -4.514675e-01 1.358741e-01
                3.457505e-01 4.984568e-01 -2.762387e-01 -2.738765e-01 -4.514782e-01 1.358845e-01 -4.526854e-01 1.507573e-01
2.702564e+00    -4.638890e-01 2.136270e-01 -4.186262e-01 1.570018e-01 -3.236887e-01 -2.377097e-01 4.040684e-01 4.283623e-01
                -4.186225e-01 1.569986e-01 -4.612186e-01 2.139213e-01 4.046218e-01 4.286938e-01 -3.256851e-01 -2.385516e-01
                -3.236830e-01 -2.377062e-01 4.046094e-01 4.286938e-01 -4.608430e-01 2.160418e-01 -4.205188e-01 1.556585e-01
                4.040722e-01 4.283653e-01 -3.256867e-01 -2.385617e-01 -4.205281e-01 1.556693e-01 -4.594530e-01 2.167186e-01
2.776923e+00    -4.572922e-01 2.773262e-01 -3.937875e-01 1.724446e-01 -3.638498e-01 -1.956008e-01 4.483911e-01 3.552542e-01
                -3.937845e-01 1.724413e-01 -4.546923e-01 2.775247e-01 4.489921e-01 3.554108e-01 -3.658676e-01 -1.961674e-01
                -3.638431e-01 -1.955988e-01 4.489799e-01 3.554125e-01 -4.539908e-01 2.794917e-01 -3.958270e-01 1.714846e-01
                4.483955e-01 3.552568e-01 -3.658709e-01 -1.961774e-01 -3.958353e-01 1.714956e-01 -4.525606e-01 2.799131e-01
2.851282e+00    -4.392312e-01 3.357325e-01 -3.743941e-01 1.866847e-01 -3.951846e-01 -1.490192e-01 4.803394e-01 2.815001e-01
                -3.743916e-01 1.866813e-01 -4.366822e-01 3.358313e-01 4.809406e-01 2.814896e-01 -3.971875e-01 -1.493267e-01
                -3.951773e-01 -1.490188e-01 4.809287e-01 2.814929e-01 -4.357308e-01 3.376045e-01 -3.764958e-01 1.861089e-01
                4.803444e-01 2.815022e-01 -3.971923e-01 -1.493364e-01 -3.765033e-01 1.861202e-01 -4.343053e-01 3.377817e-01
2.925641e+00    -4.121470e-01 3.872365e-01 -3.590902e-01 2.016043e-01 -4.184333e-01 -9.973236e-02 5.015905e-01 2.085565e-01
                -3.590880e-01 2.016008e-01 -4.096414e-01 3.872246e-01 5.021536e-01 2.083956e-01 -4.203905e-01 -9.979961e-02
                -4.184256e-01 -9.973362e-02 5.021422e-01 2.084004e-01 -4.085108e-01 3.887853e-01 -3.611782e-01 2.013973e-01
                5.015959e-01 2.085580e-01 -4.203968e-01 -9.980884e-02 -3.611851e-01 2.014088e-01 -4.071269e-01 3.887346e-01
3.000000e+00    -3.783700e-01 4.309781e-01 -3.463919e-01 2.183588e-01 -4.343490e-01 -4.886360e-02 5.136116e-01 1.372161e-01
                -3.463900e-01 2.183553e-01 -3.759112e-01 4.308430e-01 5.141071e-01 1.369260e-01 -4.362350e-01 -4.871118e-02
                -4.343413e-01 -4.886660e-02 5.140964e-01 1.369321e-01 -3.746645e-01 4.321878e-01 -3.484007e-01 2.184928e-01
                5.136175e-01 1.372168e-01 -4.362427e-01 -4.871977e-02 -3.484069e-01 2.185047e-01 -3.733520e-01 4.319280e-01
