! Generated by EMerge - 4-port S-parameters
! File generated: 2026-02-18 05:41 
! --- Branch-Line Coupler 2000 MHz ---
! Substrate: RO4003C
! h = 0.508 mm
! W50 = 1.1 mm, W35 = 1.87 mm
! L35 = 22 mm, L50 = 22 mm
! L_feed = 5 mm
! Run time = 1.59 min
# GHZ S RI R 50
1.000000e-01    -4.857317e-01 1.504497e-02 4.877403e-01 -6.773915e-02 4.868187e-01 -7.636497e-02 4.857657e-01 -8.871201e-02
                4.877401e-01 -6.773909e-02 -4.857352e-01 1.503005e-02 4.857654e-01 -8.870123e-02 4.868197e-01 -7.636047e-02
                4.868189e-01 -7.636516e-02 4.857658e-01 -8.870150e-02 -4.857304e-01 1.504391e-02 4.877407e-01 -6.774860e-02
                4.857656e-01 -8.871197e-02 4.868197e-01 -7.636051e-02 4.877404e-01 -6.774838e-02 -4.857312e-01 1.504931e-02
1.743590e-01    -4.908994e-01 2.795544e-02 4.752406e-01 -1.161336e-01 4.724325e-01 -1.311411e-01 4.692393e-01 -1.526168e-01
                4.752405e-01 -1.161335e-01 -4.909083e-01 2.792972e-02 4.692396e-01 -1.525973e-01 4.724341e-01 -1.311331e-01
                4.724327e-01 -1.311415e-01 4.692399e-01 -1.525977e-01 -4.908983e-01 2.795295e-02 4.752419e-01 -1.161506e-01
                4.692393e-01 -1.526167e-01 4.724341e-01 -1.311332e-01 4.752417e-01 -1.161502e-01 -4.908960e-01 2.796210e-02
2.487179e-01    -4.980824e-01 4.352698e-02 4.567678e-01 -1.615006e-01 4.509965e-01 -1.828325e-01 4.444796e-01 -2.133506e-01
                4.567677e-01 -1.615005e-01 -4.980997e-01 4.349089e-02 4.444811e-01 -2.133213e-01 4.509991e-01 -1.828208e-01
                4.509966e-01 -1.828329e-01 4.444812e-01 -2.133219e-01 -4.980819e-01 4.352202e-02 4.567702e-01 -1.615262e-01
                4.444796e-01 -2.133505e-01 4.509992e-01 -1.828209e-01 4.567700e-01 -1.615257e-01 -4.980749e-01 4.353446e-02
3.230769e-01    -5.063599e-01 6.256633e-02 4.332078e-01 -2.028737e-01 4.233203e-01 -2.304328e-01 4.122573e-01 -2.698647e-01
                4.332077e-01 -2.028736e-01 -5.063884e-01 6.252040e-02 4.122611e-01 -2.698242e-01 4.233246e-01 -2.304171e-01
                4.233204e-01 -2.304334e-01 4.122611e-01 -2.698250e-01 -5.063606e-01 6.255737e-02 4.332114e-01 -2.029091e-01
                4.122574e-01 -2.698647e-01 4.233246e-01 -2.304172e-01 4.332114e-01 -2.029084e-01 -5.063473e-01 6.257251e-02
3.974359e-01    -5.146271e-01 8.559304e-02 4.056175e-01 -2.395645e-01 3.903543e-01 -2.731953e-01 3.734695e-01 -3.213618e-01
                4.056175e-01 -2.395644e-01 -5.146699e-01 8.553783e-02 3.734775e-01 -3.213085e-01 3.903611e-01 -2.731753e-01
                3.903543e-01 -2.731960e-01 3.734773e-01 -3.213094e-01 -5.146301e-01 8.557806e-02 4.056222e-01 -2.396113e-01
                3.734697e-01 -3.213618e-01 3.903612e-01 -2.731755e-01 4.056224e-01 -2.396106e-01 -5.146088e-01 8.559513e-02
4.717949e-01    -5.216842e-01 1.128189e-01 3.751350e-01 -2.711803e-01 3.530979e-01 -3.106409e-01 3.290472e-01 -3.673014e-01
                3.751351e-01 -2.711802e-01 -5.217444e-01 1.127550e-01 3.290620e-01 -3.672336e-01 3.531081e-01 -3.106164e-01
                3.530978e-01 -3.106417e-01 3.290616e-01 -3.672346e-01 -5.216912e-01 1.127954e-01 3.751402e-01 -2.712406e-01
                3.290475e-01 -3.673016e-01 3.531082e-01 -3.106167e-01 3.751405e-01 -2.712398e-01 -5.216601e-01 1.128135e-01
5.461538e-01    -5.263158e-01 1.441557e-01 3.428993e-01 -2.976121e-01 3.125163e-01 -3.425348e-01 2.798714e-01 -4.073727e-01
                3.428995e-01 -2.976121e-01 -5.263972e-01 1.440836e-01 2.798964e-01 -4.072888e-01 3.125312e-01 -3.425058e-01
                3.125161e-01 -3.425357e-01 2.798958e-01 -4.072899e-01 -5.263297e-01 1.441207e-01 3.429039e-01 -2.976882e-01
                2.798717e-01 -4.073730e-01 3.125313e-01 -3.425062e-01 3.429044e-01 -2.976874e-01 -5.262868e-01 1.441387e-01
6.205128e-01    -5.273527e-01 1.792411e-01 3.099881e-01 -3.190039e-01 2.694763e-01 -3.688394e-01 2.267077e-01 -4.414428e-01
                3.099882e-01 -3.190039e-01 -5.274595e-01 1.791614e-01 2.267476e-01 -4.413415e-01 2.694974e-01 -3.688060e-01
                2.694760e-01 -3.688403e-01 2.267467e-01 -4.413426e-01 -5.273774e-01 1.791913e-01 3.099903e-01 -3.190984e-01
                2.267081e-01 -4.414432e-01 2.694975e-01 -3.688066e-01 3.099911e-01 -3.190976e-01 -5.273204e-01 1.792079e-01
6.948718e-01    -5.237122e-01 2.174722e-01 2.773760e-01 -3.357128e-01 2.247040e-01 -3.896528e-01 1.701639e-01 -4.694898e-01
                2.773761e-01 -3.357129e-01 -5.238499e-01 2.173857e-01 1.702243e-01 -4.693704e-01 2.247331e-01 -3.896155e-01
                2.247037e-01 -3.896537e-01 1.702232e-01 -4.693714e-01 -5.237535e-01 2.174041e-01 2.773735e-01 -3.358288e-01
                1.701643e-01 -4.694904e-01 2.247330e-01 -3.896161e-01 2.773745e-01 -3.358280e-01 -5.236795e-01 2.174177e-01
7.692308e-01    -5.144208e-01 2.580355e-01 2.459125e-01 -3.482720e-01 1.787656e-01 -4.051409e-01 1.106696e-01 -4.915278e-01
                2.459127e-01 -3.482722e-01 -5.145959e-01 2.579438e-01 1.107576e-01 -4.913905e-01 1.788044e-01 -4.051005e-01
                1.787652e-01 -4.051418e-01 1.107562e-01 -4.913915e-01 -5.144865e-01 2.579460e-01 2.459019e-01 -3.484127e-01
                1.106699e-01 -4.915287e-01 1.788042e-01 -4.051013e-01 2.459031e-01 -3.484118e-01 -5.143922e-01 2.579542e-01
8.435897e-01    -4.986233e-01 2.999255e-01 2.163126e-01 -3.573624e-01 1.320680e-01 -4.154687e-01 4.847729e-02 -5.075291e-01
                2.163127e-01 -3.573627e-01 -4.988439e-01 2.998310e-01 4.860142e-02 -5.073754e-01 1.321185e-01 -4.154266e-01
                1.320676e-01 -4.154697e-01 4.859980e-02 -5.073762e-01 -4.987237e-01 2.998121e-01 2.162893e-01 -3.575309e-01
                4.847761e-02 -5.075303e-01 1.321182e-01 -4.154276e-01 2.162908e-01 -3.575301e-01 -4.986050e-01 2.998118e-01
9.179487e-01    -4.755877e-01 3.419456e-01 1.891529e-01 -3.637992e-01 8.487934e-02 -4.207325e-01 -1.631600e-02 -5.173448e-01
                1.891529e-01 -3.637996e-01 -4.758639e-01 3.418527e-01 -1.614569e-02 -5.171781e-01 8.494373e-02 -4.206905e-01
                8.487888e-02 -4.207335e-01 -1.614757e-02 -5.171788e-01 -4.757362e-01 3.418075e-01 1.891108e-01 -3.639989e-01
                -1.631581e-02 -5.173463e-01 8.494323e-02 -4.206916e-01 1.891126e-01 -3.639982e-01 -4.755883e-01 3.417943e-01
9.923077e-01    -4.447173e-01 3.826892e-01 1.648631e-01 -3.685366e-01 3.736846e-02 -4.208933e-01 -8.372657e-02 -5.206240e-01
                1.648629e-01 -3.685372e-01 -4.450611e-01 3.826050e-01 -8.349841e-02 -5.204506e-01 3.744889e-02 -4.208539e-01
                3.736803e-02 -4.208942e-01 -8.350056e-02 -5.204511e-01 -4.449310e-01 3.825281e-01 1.647943e-01 -3.687704e-01
                -8.372658e-02 -5.206258e-01 3.744810e-02 -4.208552e-01 1.647964e-01 -3.687697e-01 -4.447478e-01 3.824954e-01
1.066667e+00    -4.055826e-01 4.204991e-01 1.437003e-01 -3.726886e-01 -1.033105e-02 -4.157121e-01 -1.538140e-01 -5.167304e-01
                1.437000e-01 -3.726892e-01 -4.060080e-01 4.204351e-01 -1.535149e-01 -5.165606e-01 -1.023251e-02 -4.156789e-01
                -1.033142e-02 -4.157130e-01 -1.535173e-01 -5.165608e-01 -4.058821e-01 4.203214e-01 1.435948e-01 -3.729584e-01
                -1.538142e-01 -5.167325e-01 -1.023369e-02 -4.156803e-01 1.435973e-01 -3.729579e-01 -4.056572e-01 4.202598e-01
1.141026e+00    -3.579916e-01 4.534126e-01 1.256898e-01 -3.775602e-01 -5.802203e-02 -4.046900e-01 -2.265713e-01 -5.046595e-01
                1.256892e-01 -3.775608e-01 -3.585139e-01 4.533864e-01 -2.261874e-01 -5.045091e-01 -5.790360e-02 -4.046675e-01
                -5.802226e-02 -4.046909e-01 -2.261900e-01 -5.045089e-01 -3.584013e-01 4.532312e-01 1.255347e-01 -3.778665e-01
                -2.265720e-01 -5.046619e-01 -5.790526e-02 -4.046689e-01 1.255377e-01 -3.778663e-01 -3.581277e-01 4.531271e-01
1.215385e+00    -3.021227e-01 4.791046e-01 1.105113e-01 -3.846752e-01 -1.052931e-01 -3.870252e-01 -3.017566e-01 -4.829673e-01
                1.105103e-01 -3.846757e-01 -3.027569e-01 4.791424e-01 -3.012745e-01 -4.828596e-01 -1.051537e-01 -3.870195e-01
                -1.052932e-01 -3.870262e-01 -3.012773e-01 -4.828591e-01 -3.026696e-01 4.789426e-01 1.102910e-01 -3.850158e-01
                -3.017578e-01 -4.829700e-01 -1.051559e-01 -3.870209e-01 1.102946e-01 -3.850158e-01 -3.023413e-01 4.787764e-01
1.289744e+00    -2.387448e-01 4.948656e-01 9.730965e-02 -3.957635e-01 -1.512965e-01 -3.616194e-01 -3.786397e-01 -4.497424e-01
                9.730822e-02 -3.957639e-01 -2.395026e-01 4.950046e-01 -3.780493e-01 -4.497106e-01 -1.511361e-01 -3.616379e-01
                -1.512963e-01 -3.616205e-01 -3.780522e-01 -4.497096e-01 -2.394557e-01 4.947596e-01 9.700558e-02 -3.961318e-01
                -3.786415e-01 -4.497453e-01 -1.511390e-01 -3.616390e-01 9.700975e-02 -3.961323e-01 -2.390697e-01 4.945042e-01
1.364103e+00    -1.695437e-01 4.976807e-01 8.441772e-02 -4.126432e-01 -1.944433e-01 -3.271953e-01 -4.556498e-01 -4.026862e-01
                8.441584e-02 -4.126432e-01 -1.704288e-01 4.979716e-01 -4.549488e-01 -4.027750e-01 -1.942640e-01 -3.272473e-01
                -1.944427e-01 -3.271968e-01 -4.549518e-01 -4.027734e-01 -1.704404e-01 4.976851e-01 8.400905e-02 -4.130261e-01
                -4.556524e-01 -4.026892e-01 -1.942677e-01 -3.272478e-01 8.401392e-02 -4.130274e-01 -1.700007e-01 4.973039e-01
1.438462e+00    -9.752964e-02 4.845244e-01 6.902550e-02 -4.368855e-01 -2.320502e-01 -2.826365e-01 -5.299473e-01 -3.394127e-01
                6.902320e-02 -4.368850e-01 -9.852874e-02 4.850318e-01 -5.291483e-01 -3.396787e-01 -2.318572e-01 -2.827325e-01
                -2.320492e-01 -2.826386e-01 -5.291512e-01 -3.396764e-01 -9.861910e-02 4.847146e-01 6.849110e-02 -4.372610e-01
                -5.299508e-01 -3.394157e-01 -2.318617e-01 -2.827321e-01 6.849668e-02 -4.372633e-01 -9.814293e-02 4.841617e-01
1.512821e+00    -2.739148e-02 4.530138e-01 4.693887e-02 -4.691309e-01 -2.600812e-01 -2.276772e-01 -5.970529e-01 -2.581084e-01
                4.693628e-02 -4.691294e-01 -2.846369e-02 4.538122e-01 -5.961933e-01 -2.586163e-01 -2.598846e-01 -2.278281e-01
                -2.600800e-01 -2.276800e-01 -5.961960e-01 -2.586134e-01 -2.865273e-02 4.534841e-01 4.626118e-02 -4.694655e-01
                -5.970573e-01 -2.581111e-01 -2.598896e-01 -2.278265e-01 4.626736e-02 -4.694692e-01 -2.817904e-02 4.527074e-01
1.587179e+00    3.451516e-02 4.024847e-01 1.275556e-02 -5.080071e-01 -2.733108e-01 -1.639909e-01 -6.508480e-01 -1.586151e-01
                1.275296e-02 -5.080045e-01 3.344992e-02 4.036458e-01 -6.500004e-01 -1.594272e-01 -2.731264e-01 -1.642063e-01
                -2.733094e-01 -1.639949e-01 -6.500028e-01 -1.594236e-01 3.314762e-02 4.033380e-01 1.192665e-02 -5.082557e-01
                -6.508535e-01 -1.586173e-01 -2.731316e-01 -1.642029e-01 1.193312e-02 -5.082615e-01 3.354917e-02 4.022887e-01
1.661538e+00    8.100920e-02 3.352457e-01 -3.907096e-02 -5.489263e-01 -2.663776e-01 -9.640018e-02 -6.844075e-01 -4.369131e-02
                -3.907310e-02 -5.489222e-01 8.007594e-02 3.368169e-01 -6.836847e-01 -4.484710e-02 -2.662275e-01 -9.668456e-02
                -2.663766e-01 -9.640560e-02 -6.836865e-01 -4.484287e-02 7.965797e-02 3.365705e-01 -4.004197e-02 -5.490356e-01
                -6.844140e-01 -4.369263e-02 -2.662323e-01 -9.667908e-02 -4.003582e-02 -5.490438e-01 7.988217e-02 3.352204e-01
1.735897e+00    1.059974e-01 2.572332e-01 -1.120382e-01 -5.835884e-01 -2.359701e-01 -3.337715e-02 -6.919045e-01 8.032805e-02
                -1.120392e-01 -5.835830e-01 1.053569e-01 2.592081e-01 -6.914516e-01 7.883773e-02 -2.358808e-01 -3.372643e-02
                -2.359700e-01 -3.338414e-02 -6.914527e-01 7.884249e-02 1.048398e-01 2.590678e-01 -1.131195e-01 -5.835056e-01
                -6.919119e-01 8.032790e-02 -2.358843e-01 -3.371877e-02 -1.131146e-01 -5.835165e-01 1.047526e-01 2.574336e-01
1.810256e+00    1.068244e-01 1.770469e-01 -2.049393e-01 -6.012849e-01 -1.834733e-01 1.425530e-02 -6.709525e-01 2.044888e-01
                -2.049386e-01 -6.012785e-01 1.066432e-01 1.793420e-01 -6.709201e-01 2.027439e-01 -1.834715e-01 1.385674e-02
                -1.834748e-01 1.424686e-02 -6.709203e-01 2.027490e-01 1.060650e-01 1.793453e-01 -2.060772e-01 -6.009700e-01
                -6.709604e-01 2.044900e-01 -1.834726e-01 1.386621e-02 -2.060746e-01 -6.009834e-01 1.055274e-01 1.775082e-01
1.884615e+00    8.542511e-02 1.032363e-01 -3.104761e-01 -5.922169e-01 -1.163478e-01 3.663679e-02 -6.237510e-01 3.199214e-01
                -3.104731e-01 -5.922101e-01 8.583091e-02 1.056893e-01 -6.242546e-01 3.180754e-01 -1.164542e-01 3.621602e-02
                -1.163515e-01 3.662740e-02 -6.242538e-01 3.180807e-01 8.524604e-02 1.058545e-01 -3.116035e-01 -5.916537e-01
                -6.237592e-01 3.199243e-01 -1.164521e-01 3.622644e-02 -3.116042e-01 -5.916688e-01 8.415059e-02 1.039644e-01
1.958974e+00    4.702728e-02 4.145511e-02 -4.165943e-01 -5.512627e-01 -4.678707e-02 2.862961e-02 -5.557860e-01 4.206754e-01
                -4.165887e-01 -5.512564e-01 4.806877e-02 4.385232e-02 -5.568677e-01 4.189313e-01 -4.701174e-02 2.822167e-02
                -4.679354e-02 2.862008e-02 -5.568658e-01 4.189365e-01 4.753550e-02 4.417134e-02 -4.176448e-01 -5.504613e-01
                -5.557941e-01 4.206799e-01 -4.700594e-02 2.823175e-02 -4.176496e-01 -5.504771e-01 4.584262e-02 4.242665e-02
2.033333e+00    -2.763269e-03 -6.359173e-03 -5.100244e-01 -4.799293e-01 1.182706e-02 -8.237471e-03 -4.729184e-01 5.045284e-01
                -5.100165e-01 -4.799246e-01 -1.133296e-03 -4.236408e-03 -4.745290e-01 5.030966e-01 1.148760e-02 -8.594996e-03
                1.181779e-02 -8.246197e-03 -4.745262e-01 5.031015e-01 -1.566700e-03 -3.796069e-03 -5.109445e-01 -4.789207e-01
                -4.729261e-01 5.045346e-01 1.149695e-02 -8.586688e-03 -5.109536e-01 -4.789357e-01 -3.809762e-03 -5.186622e-03
2.107692e+00    -6.014662e-02 -4.039663e-02 -5.799777e-01 -3.856838e-01 4.862166e-02 -6.644413e-02 -3.792063e-01 5.713914e-01
                -5.799680e-01 -3.856815e-01 -5.806012e-02 -3.872583e-02 -3.812130e-01 5.704456e-01 4.818386e-02 -6.671656e-02
                4.860993e-02 -6.645113e-02 -3.812093e-01 5.704501e-01 -5.836532e-02 -3.821223e-02 -5.807320e-01 -3.845089e-01
                -3.792132e-01 5.713993e-01 4.819601e-02 -6.671131e-02 -5.807449e-01 -3.845216e-01 -6.102825e-02 -3.907167e-02
2.182051e+00    -1.231279e-01 -6.069422e-02 -6.204768e-01 -2.796159e-01 5.756422e-02 -1.348189e-01 -2.769127e-01 6.210257e-01
                -6.204663e-01 -2.796164e-01 -1.207703e-01 -5.958035e-02 -2.791263e-01 6.206700e-01 5.705528e-02 -1.349789e-01
                5.755071e-02 -1.348235e-01 -2.791218e-01 6.206739e-01 -1.209422e-01 -5.904545e-02 -6.210460e-01 -2.783162e-01
                -2.769186e-01 6.210352e-01 5.706902e-02 -1.349776e-01 -6.210617e-01 -2.783257e-01 -1.238351e-01 -5.926242e-02
2.256410e+00    -1.899184e-01 -6.608607e-02 -6.311006e-01 -1.736352e-01 3.821043e-02 -2.013433e-01 -1.681090e-01 6.519923e-01
                -6.310904e-01 -1.736387e-01 -1.874889e-01 -6.555039e-02 -1.703219e-01 6.522469e-01 3.766478e-02 -2.013742e-01
                3.819602e-02 -2.013451e-01 -1.703166e-01 6.522500e-01 -1.875430e-01 -6.503957e-02 -6.314767e-01 -1.722480e-01
                -1.681135e-01 6.520033e-01 3.767868e-02 -2.013772e-01 -6.314940e-01 -1.722535e-01 -1.904523e-01 -6.458651e-02
2.330769e+00    -2.574105e-01 -5.492057e-02 -6.163889e-01 -7.785827e-02 -4.886583e-03 -2.557665e-01 -5.620419e-02 6.623688e-01
                -6.163798e-01 -7.786443e-02 -2.550849e-01 -5.490961e-02 -5.822863e-02 6.631750e-01 -5.431835e-03 -2.556638e-01
                -4.901007e-03 -2.557655e-01 -5.822271e-02 6.631771e-01 -2.550504e-01 -5.445458e-02 -6.165702e-01 -7.641513e-02
                -5.620695e-02 6.623810e-01 -5.419191e-03 -2.556708e-01 -6.165878e-01 -7.641667e-02 -2.577785e-01 -5.338615e-02
2.405128e+00    -3.209662e-01 -2.663704e-02 -5.841095e-01 1.306422e-03 -6.390282e-02 -2.915235e-01 5.383964e-02 6.513248e-01
                -5.841022e-01 1.298169e-03 -3.188711e-01 -2.704665e-02 5.214252e-02 6.525670e-01 -6.441281e-02 -2.912948e-01
                -6.391651e-02 -2.915200e-01 5.214884e-02 6.525680e-01 -3.187828e-01 -2.666293e-02 -5.840978e-01 2.778716e-03
                5.383891e-02 6.513378e-01 -6.440254e-02 -2.913050e-01 -5.841145e-01 2.780712e-03 -3.211801e-01 -2.509580e-02
2.479487e+00    -3.755207e-01 1.715190e-02 -5.428854e-01 6.182075e-02 -1.301104e-01 -3.064018e-01 1.566044e-01 6.202036e-01
                -5.428803e-01 6.181111e-02 -3.737245e-01 1.644620e-02 1.553120e-01 6.217405e-01 -1.305565e-01 -3.060637e-01
                -1.301229e-01 -3.063965e-01 1.553185e-01 6.217404e-01 -3.736157e-01 1.675771e-02 -5.426837e-01 6.329886e-02
                1.566059e-01 6.202171e-01 -1.305493e-01 -3.060763e-01 -5.426989e-01 6.330366e-02 -3.755963e-01 1.867636e-02
2.553846e+00    -4.170468e-01 7.276432e-02 -5.000742e-01 1.052997e-01 -1.959917e-01 -3.018296e-01 2.476728e-01 5.724191e-01
                -5.000714e-01 1.052894e-01 -4.155665e-01 7.188114e-02 2.468055e-01 5.741122e-01 -1.963534e-01 -3.014041e-01
                -1.960027e-01 -3.018229e-01 2.468119e-01 5.741110e-01 -4.154637e-01 7.212989e-02 -4.996867e-01 1.067627e-01
                2.476765e-01 5.724326e-01 -1.963496e-01 -3.014180e-01 -4.996998e-01 1.067695e-01 -4.170034e-01 7.425331e-02
2.628205e+00    -4.434369e-01 1.354365e-01 -4.606295e-01 1.354792e-01 -2.563706e-01 -2.813491e-01 3.245011e-01 5.124713e-01
                -4.606289e-01 1.354688e-01 -4.422531e-01 1.344726e-01 3.240371e-01 5.142035e-01 -2.566357e-01 -2.808601e-01
                -2.563801e-01 -2.813416e-01 3.240433e-01 5.142012e-01 -4.421752e-01 1.346737e-01 -4.600609e-01 1.369078e-01
                3.245071e-01 5.124845e-01 -2.566352e-01 -2.808743e-01 -4.600719e-01 1.369158e-01 -4.432965e-01 1.368772e-01
2.702564e+00    -4.545348e-01 2.004482e-01 -4.270256e-01 1.566876e-01 -3.084802e-01 -2.490964e-01 3.864414e-01 4.448269e-01
                -4.270269e-01 1.566776e-01 -4.536089e-01 1.994733e-01 3.863344e-01 4.465102e-01 -3.086430e-01 -2.485666e-01
                -3.084883e-01 -2.490885e-01 3.863403e-01 4.465068e-01 -4.535670e-01 1.996437e-01 -4.262811e-01 1.580637e-01
                3.864495e-01 4.448394e-01 -3.086456e-01 -2.485804e-01 -4.262902e-01 1.580723e-01 -4.543205e-01 2.018338e-01
2.776923e+00    -4.516209e-01 2.638670e-01 -3.998228e-01 1.728304e-01 -3.513874e-01 -2.087958e-01 4.342162e-01 3.731841e-01
                -3.998258e-01 1.728210e-01 -4.509077e-01 2.629256e-01 4.344102e-01 3.747583e-01 -3.514472e-01 -2.082457e-01
                -3.513944e-01 -2.087878e-01 4.344155e-01 3.747540e-01 -4.509074e-01 2.630819e-01 -3.989082e-01 1.741369e-01
                4.342263e-01 3.731956e-01 -3.514525e-01 -2.082586e-01 -3.989156e-01 1.741456e-01 -4.513555e-01 2.651971e-01
2.851282e+00    -4.367712e-01 3.228177e-01 -3.783892e-01 1.869504e-01 -3.852615e-01 -1.633344e-01 4.692677e-01 3.002161e-01
                -3.783935e-01 1.869419e-01 -4.362274e-01 3.219349e-01 4.697058e-01 3.016441e-01 -3.852206e-01 -1.627817e-01
                -3.852676e-01 -1.633265e-01 4.697105e-01 3.016389e-01 -4.362699e-01 3.220923e-01 -3.773105e-01 1.881707e-01
                4.692796e-01 3.002264e-01 -3.852282e-01 -1.627932e-01 -3.773167e-01 1.881792e-01 -4.364759e-01 3.240976e-01
2.925641e+00    -4.123449e-01 3.754268e-01 -3.614936e-01 2.011802e-01 -4.107715e-01 -1.147333e-01 4.932355e-01 2.276447e-01
                -3.614990e-01 2.011728e-01 -4.119329e-01 3.746141e-01 4.938658e-01 2.289060e-01 -4.106339e-01 -1.141932e-01
                -4.107769e-01 -1.147256e-01 4.938698e-01 2.289001e-01 -4.120170e-01 3.747860e-01 -3.602574e-01 2.022976e-01
                4.932491e-01 2.276535e-01 -4.106435e-01 -1.142030e-01 -3.602626e-01 2.023059e-01 -4.120380e-01 3.766669e-01
3.000000e+00    -3.806692e-01 4.206266e-01 -3.476905e-01 2.168783e-01 -4.286928e-01 -6.430858e-02 5.076353e-01 1.564592e-01
                -3.476967e-01 2.168719e-01 -3.803586e-01 4.198869e-01 5.084123e-01 1.575451e-01 -4.284637e-01 -6.379432e-02
                -4.286976e-01 -6.430111e-02 5.084155e-01 1.575385e-01 -3.804810e-01 4.200855e-01 -3.463040e-01 2.178761e-01
                5.076503e-01 1.564664e-01 -4.284748e-01 -6.380232e-02 -3.463085e-01 2.178841e-01 -3.803652e-01 4.218417e-01
