! Generated by EMerge - 4-port S-parameters
! File generated: 2026-02-28 07:36 
! --- Double-Box Branch-Line Coupler 2000 MHz ---
! Substrate: RO4003C
! h = 0.508 mm
! W50 = 1.1 mm, W35 = 1.9 mm, W121 = 0.1 mm
! Lx = 22.2 mm, Ly = 22.2 mm
! L_feed = 5 mm
! Run time = 2.35 min
# GHZ S RI R 50
1.000000e-02    -4.812876e-01 9.494880e-04 4.922895e-01 -1.156098e-02 4.924496e-01 -1.077126e-02 4.924194e-01 -1.295316e-02
                4.946710e-01 -1.163000e-02 -4.786172e-01 9.897241e-04 4.913505e-01 -1.292021e-02 4.913814e-01 -1.072172e-02
                4.947827e-01 -1.083533e-02 4.913017e-01 -1.291886e-02 -4.789093e-01 1.001214e-03 4.914677e-01 -1.153396e-02
                4.947521e-01 -1.302758e-02 4.913324e-01 -1.072061e-02 4.914676e-01 -1.153398e-02 -4.789090e-01 9.920062e-04
1.123077e-01    -4.917921e-01 1.320494e-02 4.714942e-01 -1.267250e-01 4.730333e-01 -1.179944e-01 4.695235e-01 -1.423469e-01
                4.737718e-01 -1.273512e-01 -4.889515e-01 1.337290e-02 4.685449e-01 -1.419268e-01 4.721200e-01 -1.174026e-01
                4.752713e-01 -1.185665e-01 4.684983e-01 -1.419126e-01 -4.892692e-01 1.351483e-02 4.707551e-01 -1.263724e-01
                4.717441e-01 -1.430344e-01 4.720729e-01 -1.173910e-01 4.707550e-01 -1.263726e-01 -4.892343e-01 1.339909e-02
2.146154e-01    -5.157147e-01 3.806045e-02 4.201841e-01 -2.277686e-01 4.253221e-01 -2.117914e-01 4.124814e-01 -2.575526e-01
                4.222102e-01 -2.288826e-01 -5.124956e-01 3.815171e-02 4.117275e-01 -2.568116e-01 4.247828e-01 -2.107887e-01
                4.273310e-01 -2.128070e-01 4.116865e-01 -2.567859e-01 -5.128617e-01 3.847397e-02 4.196478e-01 -2.271569e-01
                4.144279e-01 -2.587849e-01 4.247404e-01 -2.107679e-01 4.196476e-01 -2.271572e-01 -5.127559e-01 3.819687e-02
3.169231e-01    -5.436097e-01 8.239092e-02 3.474185e-01 -3.062865e-01 3.581582e-01 -2.844211e-01 3.299349e-01 -3.500375e-01
                3.490897e-01 -3.077786e-01 -5.399700e-01 8.210228e-02 3.295000e-01 -3.490830e-01 3.581213e-01 -2.832140e-01
                3.598462e-01 -2.857791e-01 3.294672e-01 -3.490481e-01 -5.403616e-01 8.267600e-02 3.471606e-01 -3.055214e-01
                3.314869e-01 -3.517058e-01 3.580855e-01 -2.831860e-01 3.471604e-01 -3.055218e-01 -5.401966e-01 8.215841e-02
4.192308e-01    -5.645680e-01 1.472065e-01 2.635607e-01 -3.594153e-01 2.814676e-01 -3.337318e-01 2.315277e-01 -4.166491e-01
                2.648240e-01 -3.611618e-01 -5.606500e-01 1.462469e-01 2.314586e-01 -4.156075e-01 2.819581e-01 -3.325451e-01
                2.827901e-01 -3.353210e-01 2.314356e-01 -4.155659e-01 -5.609944e-01 1.471333e-01 2.636056e-01 -3.586148e-01
                2.326106e-01 -4.186300e-01 2.819297e-01 -3.325123e-01 2.636053e-01 -3.586153e-01 -5.608344e-01 1.463044e-01
5.215385e-01    -5.691996e-01 2.287584e-01 1.773931e-01 -3.885979e-01 2.032489e-01 -3.618919e-01 1.249598e-01 -4.582418e-01
                1.782379e-01 -3.904827e-01 -5.652883e-01 2.269374e-01 1.252606e-01 -4.572400e-01 2.042050e-01 -3.609253e-01
                2.041993e-01 -3.636118e-01 1.252482e-01 -4.571941e-01 -5.654749e-01 2.281626e-01 1.777201e-01 -3.878711e-01
                1.255356e-01 -4.604160e-01 2.041842e-01 -3.608897e-01 1.777196e-01 -3.878717e-01 -5.654239e-01 2.269855e-01
6.238462e-01    -5.508193e-01 3.205145e-01 9.505580e-02 -3.974680e-01 1.283306e-01 -3.731534e-01 1.485367e-02 -4.773214e-01
                9.550143e-02 -3.993925e-01 -5.472753e-01 3.177909e-01 1.549380e-02 -4.764786e-01 1.296318e-01 -3.725583e-01
                1.289252e-01 -3.749237e-01 1.549256e-02 -4.764307e-01 -5.471752e-01 3.193313e-01 9.561160e-02 -3.969022e-01
                1.490652e-02 -4.795817e-01 1.296183e-01 -3.725215e-01 9.561084e-02 -3.969029e-01 -5.473572e-01 3.178172e-01
7.261538e-01    -5.052837e-01 4.146261e-01 2.040504e-02 -3.902202e-01 5.849241e-02 -3.719282e-01 -9.693995e-02 -4.759963e-01
                2.048936e-02 -3.921065e-01 -5.024732e-01 4.111229e-01 -9.602129e-02 -4.754217e-01 5.998485e-02 -3.718026e-01
                5.875579e-02 -3.736896e-01 -9.601119e-02 -4.753738e-01 -5.019604e-01 4.128997e-01 2.111470e-02 -3.898759e-01
                -9.741725e-02 -4.782454e-01 5.997828e-02 -3.717657e-01 2.111368e-02 -3.898766e-01 -5.024992e-01 4.111122e-01
8.284615e-01    -4.304000e-01 5.024181e-01 -4.407699e-02 -3.709577e-01 -6.849405e-03 -3.614993e-01 -2.103547e-01 -4.545816e-01
                -4.430420e-02 -3.727477e-01 -4.286294e-01 4.984163e-01 -2.092506e-01 -4.543735e-01 -5.336375e-03 -3.618912e-01
                -6.895451e-03 -3.632082e-01 -2.092289e-01 -4.543277e-01 -4.276025e-01 5.002958e-01 -4.330091e-02 -3.708656e-01
                -2.113688e-01 -4.567240e-01 -5.336506e-03 -3.618553e-01 -4.330223e-02 -3.708663e-01 -4.286040e-01 4.983507e-01
9.307692e-01    -3.256629e-01 5.740053e-01 -9.651252e-02 -3.439812e-01 -6.982027e-02 -3.430584e-01 -3.258161e-01 -4.106218e-01
                -9.699250e-02 -3.456379e-01 -3.251142e-01 5.699219e-01 -3.246611e-01 -4.108604e-01 -6.846829e-02 -3.439707e-01
                -7.016397e-02 -3.446767e-01 -3.246274e-01 -4.108189e-01 -3.235191e-01 5.717210e-01 -9.576162e-02 -3.441395e-01
                -3.273755e-01 -4.125501e-01 -6.846218e-02 -3.439365e-01 -9.576326e-02 -3.441401e-01 -3.250538e-01 5.697849e-01
1.033077e+00    -1.929636e-01 6.173301e-01 -1.356021e-01 -3.148687e-01 -1.329324e-01 -3.146389e-01 -4.424212e-01 -3.380367e-01
                -1.362700e-01 -3.163823e-01 -1.936227e-01 6.136714e-01 -4.414035e-01 -3.387628e-01 -1.319374e-01 -3.160271e-01
                -1.335737e-01 -3.161191e-01 -4.413576e-01 -3.387287e-01 -1.914805e-01 6.151728e-01 -1.349602e-01 -3.152392e-01
                -4.445294e-01 -3.396150e-01 -1.319249e-01 -3.159956e-01 -1.349622e-01 -3.152396e-01 -1.935606e-01 6.134608e-01
1.135385e+00    -3.919101e-02 6.172889e-01 -1.623110e-01 -2.919107e-01 -1.966305e-01 -2.699533e-01 -5.546879e-01 -2.266284e-01
                -1.631070e-01 -2.933113e-01 -4.077546e-02 6.145524e-01 -5.540518e-01 -2.277957e-01 -1.962101e-01 -2.717040e-01
                -1.975712e-01 -2.712182e-01 -5.539939e-01 -2.277732e-01 -3.821126e-02 6.155407e-01 -1.618342e-01 -2.924198e-01
                -5.573221e-01 -2.276727e-01 -1.961913e-01 -2.716768e-01 -1.618364e-01 -2.924199e-01 -4.075430e-02 6.143072e-01
1.237692e+00    1.181119e-01 5.572725e-01 -1.846978e-01 -2.858661e-01 -2.539805e-01 -1.989513e-01 -6.465951e-01 -6.403482e-02
                -1.856016e-01 -2.872354e-01 1.161755e-01 5.557603e-01 -6.465948e-01 -6.543538e-02 -2.543623e-01 -2.008240e-01
                -2.551888e-01 -1.998767e-01 -6.465271e-01 -6.543000e-02 1.189250e-01 5.560920e-01 -1.843870e-01 -2.864242e-01
                -6.496556e-01 -6.430370e-02 -2.543375e-01 -2.008038e-01 -1.843896e-01 -2.864241e-01 1.161511e-01 5.555916e-01
1.340000e+00    2.439124e-01 4.293044e-01 -2.246419e-01 -3.019811e-01 -2.836106e-01 -9.606891e-02 -6.846375e-01 1.537837e-01
                -2.257393e-01 -3.034253e-01 2.423269e-01 4.288691e-01 -6.853866e-01 1.525664e-01 -2.849314e-01 -9.761183e-02
                -2.849534e-01 -9.650544e-02 -6.853147e-01 1.525485e-01 2.449774e-01 4.285627e-01 -2.244345e-01 -3.025380e-01
                -6.878657e-01 1.545487e-01 -2.849035e-01 -9.760187e-02 -2.244374e-01 -3.025377e-01 2.424027e-01 4.289354e-01
1.442308e+00    2.928324e-01 2.570258e-01 -3.121980e-01 -3.195055e-01 -2.550438e-01 1.909699e-02 -6.249137e-01 3.992226e-01
                -3.137187e-01 -3.210287e-01 2.919655e-01 2.570156e-01 -6.261626e-01 3.986619e-01 -2.570946e-01 1.851062e-02
                -2.562450e-01 1.920421e-02 -6.260970e-01 3.986175e-01 2.943542e-01 2.562514e-01 -3.120340e-01 -3.201105e-01
                -6.278445e-01 4.011466e-01 -2.570693e-01 1.850891e-02 -3.120375e-01 -3.201098e-01 2.925247e-01 2.573182e-01
1.544615e+00    2.501371e-01 1.032411e-01 -4.480309e-01 -2.855089e-01 -1.657704e-01 9.541481e-02 -4.541994e-01 6.049438e-01
                -4.502050e-01 -2.868592e-01 2.496420e-01 1.030374e-01 -4.553748e-01 6.051678e-01 -1.678169e-01 9.619393e-02
                -1.665448e-01 9.587868e-02 -4.553276e-01 6.051008e-01 2.518224e-01 1.019396e-01 -4.479752e-01 -2.862535e-01
                -4.563093e-01 6.078320e-01 -1.678004e-01 9.618427e-02 -4.479795e-01 -2.862521e-01 2.510699e-01 1.031281e-01
1.646923e+00    1.606073e-01 1.840593e-02 -5.786789e-01 -1.650778e-01 -6.523938e-02 9.987815e-02 -2.195156e-01 7.148056e-01
                -5.814759e-01 -1.658380e-01 1.598620e-01 1.806830e-02 -2.202037e-01 7.154596e-01 -6.639036e-02 1.017595e-01
                -6.553765e-02 1.003583e-01 -2.201823e-01 7.153803e-01 1.618749e-01 1.652109e-02 -5.788928e-01 -1.659239e-01
                -2.205070e-01 7.181998e-01 -6.638407e-02 1.017491e-01 -5.788978e-01 -1.659211e-01 1.620438e-01 1.718894e-02
1.749231e+00    8.109087e-02 -4.103395e-03 -6.465553e-01 1.813957e-02 -4.191514e-03 5.696854e-02 1.817814e-02 7.287234e-01
                -6.496674e-01 1.826929e-02 7.991690e-02 -4.053834e-03 1.794835e-02 7.293861e-01 -4.004429e-03 5.916688e-02
                -4.202682e-03 5.724347e-02 1.794323e-02 7.293049e-01 8.154254e-02 -6.215562e-03 -6.471085e-01 1.737748e-02
                1.831383e-02 7.321685e-01 -4.004470e-03 5.916058e-02 -6.471134e-01 1.738223e-02 8.216248e-02 -6.402717e-03
1.851538e+00    3.411837e-02 1.736941e-03 -6.350641e-01 2.168872e-01 1.072982e-02 1.186141e-02 2.295546e-01 6.737031e-01
                -6.381062e-01 2.179766e-01 3.281228e-02 2.571497e-03 2.295518e-01 6.742196e-01 1.210648e-02 1.357945e-02
                1.078817e-02 1.192334e-02 2.295226e-01 6.741444e-01 3.366247e-02 -1.473534e-04 -6.358661e-01 2.163847e-01
                2.306885e-01 6.768739e-01 1.210474e-02 1.357756e-02 -6.358702e-01 2.163914e-01 3.426375e-02 -1.194017e-03
1.953846e+00    1.652928e-02 9.473805e-03 -5.549637e-01 3.976249e-01 2.799186e-03 -9.690023e-03 4.077715e-01 5.698724e-01
                -5.576045e-01 3.995822e-01 1.553317e-02 1.117594e-02 4.078500e-01 5.703020e-01 4.843344e-03 -8.947854e-03
                2.821165e-03 -9.728730e-03 4.078000e-01 5.702385e-01 1.527834e-02 8.225398e-03 -5.558534e-01 3.974457e-01
                4.097433e-01 5.725393e-01 4.842233e-03 -8.947760e-03 -5.558561e-01 3.974541e-01 1.551807e-02 6.501500e-03
2.056154e+00    1.758059e-02 4.493145e-03 -4.214117e-01 5.422031e-01 -4.966092e-04 -6.795579e-03 5.499996e-01 4.272561e-01
                -4.233945e-01 5.448492e-01 1.728027e-02 6.907515e-03 5.501771e-01 4.276828e-01 1.570659e-03 -7.139656e-03
                -4.869110e-04 -6.820361e-03 5.501102e-01 4.276359e-01 1.579743e-02 4.218691e-03 -4.222582e-01 5.423154e-01
                5.526362e-01 4.292374e-01 1.569611e-03 -7.140174e-03 -4.222588e-01 5.423249e-01 1.546408e-02 2.095847e-03
2.158462e+00    2.496676e-02 -2.102268e-02 -2.475848e-01 6.373041e-01 1.910885e-02 4.069612e-03 6.510922e-01 2.518971e-01
                -2.487176e-01 6.403958e-01 2.562340e-02 -1.819728e-02 6.514716e-01 2.522906e-01 2.063788e-02 2.889146e-03
                1.921554e-02 4.093902e-03 6.513924e-01 2.522645e-01 2.305705e-02 -2.009935e-02 -2.483203e-01 6.376523e-01
                6.541965e-01 2.530399e-01 2.063427e-02 2.887093e-03 -2.483184e-01 6.376623e-01 2.207514e-02 -2.227493e-02
2.260769e+00    2.436312e-02 -7.060345e-02 -4.996317e-02 6.685326e-01 6.355344e-02 -2.515734e-03 7.025877e-01 4.981249e-02
                -5.013475e-02 6.717578e-01 2.607507e-02 -6.773934e-02 7.032086e-01 4.999959e-02 6.423992e-02 -4.019931e-03
                6.387360e-02 -2.527955e-03 7.031229e-01 4.999806e-02 2.283120e-02 -6.844901e-02 -5.054010e-02 6.690924e-01
                7.059229e-01 4.999317e-02 6.423067e-02 -4.021628e-03 -5.053595e-02 6.691022e-01 2.131566e-02 -7.029301e-02
2.363077e+00    -2.562254e-03 -1.414969e-01 1.434840e-01 6.248972e-01 1.137425e-01 -4.917581e-02 6.916503e-01 -1.691088e-01
                1.442478e-01 6.278915e-01 1.357338e-04 -1.389363e-01 6.923573e-01 -1.693345e-01 1.136630e-01 -5.041706e-02
                1.143002e-01 -4.941622e-02 6.922727e-01 -1.693090e-01 -3.215386e-03 -1.383152e-01 1.431656e-01 6.256495e-01
                6.949190e-01 -1.699666e-01 1.136470e-01 -5.041369e-02 1.431717e-01 6.256584e-01 -4.882096e-03 -1.395274e-01
2.465385e+00    -7.586910e-02 -2.169508e-01 2.938011e-01 5.138796e-01 1.338193e-01 -1.378709e-01 6.035160e-01 -3.829479e-01
                2.952850e-01 5.163175e-01 -7.233448e-02 -2.149240e-01 6.039750e-01 -3.836110e-01 1.334198e-01 -1.384624e-01
                1.344679e-01 -1.385381e-01 6.039012e-01 -3.835585e-01 -7.526092e-02 -2.131647e-01 2.938903e-01 5.146991e-01
                6.063521e-01 -3.848156e-01 1.333999e-01 -1.384485e-01 2.938977e-01 5.147070e-01 -7.648333e-02 -2.137816e-01
2.567692e+00    -2.014941e-01 -2.613980e-01 3.719753e-01 3.726008e-01 9.487925e-02 -2.381100e-01 4.370147e-01 -5.525408e-01
                3.738246e-01 3.743394e-01 -1.972422e-01 -2.600785e-01 4.369559e-01 -5.533630e-01 9.473456e-02 -2.380887e-01
                9.533641e-02 -2.392556e-01 4.369030e-01 -5.532888e-01 -1.994576e-01 -2.575856e-01 3.725128e-01 3.732014e-01
                4.390485e-01 -5.552036e-01 9.471769e-02 -2.380618e-01 3.725211e-01 3.732088e-01 -1.997859e-01 -2.581440e-01
2.670000e+00    -3.526963e-01 -2.396428e-01 3.855475e-01 2.488493e-01 3.377738e-03 -3.062003e-01 2.229149e-01 -6.399494e-01
                3.874472e-01 2.499782e-01 -3.478672e-01 -2.392629e-01 2.223828e-01 -6.405377e-01 3.837068e-03 -3.059709e-01
                3.394533e-03 -3.076686e-01 2.223570e-01 -6.404517e-01 -3.493576e-01 -2.364199e-01 3.863184e-01 2.489504e-01
                2.239255e-01 -6.430144e-01 3.830037e-03 -3.059339e-01 3.863281e-01 2.489578e-01 -3.489050e-01 -2.376642e-01
2.772308e+00    -4.835057e-01 -1.480795e-01 3.702993e-01 1.646461e-01 -1.061469e-01 -3.222584e-01 1.078937e-02 -6.390337e-01
                3.721100e-01 1.653594e-01 -4.784001e-01 -1.488714e-01 1.007698e-02 -6.391856e-01 -1.051017e-01 -3.222867e-01
                -1.066538e-01 -3.238017e-01 1.007863e-02 -6.390984e-01 -4.792751e-01 -1.459217e-01 3.709379e-01 1.641976e-01
                1.079192e-02 -6.420827e-01 -1.050957e-01 -3.222448e-01 3.709496e-01 1.642051e-01 -4.786455e-01 -1.482598e-01
2.874615e+00    -5.630505e-01 -1.363709e-02 3.560098e-01 1.111540e-01 -2.047968e-01 -2.958287e-01 -1.648339e-01 -5.742586e-01
                3.577363e-01 1.115975e-01 -5.581044e-01 -1.565886e-02 -1.654416e-01 -5.740249e-01 -2.034134e-01 -2.964159e-01
                -2.057743e-01 -2.972495e-01 -1.654162e-01 -5.739439e-01 -5.584834e-01 -1.274989e-02 3.562273e-01 1.103410e-01
                -1.656625e-01 -5.769945e-01 -2.033943e-01 -2.963728e-01 3.562419e-01 1.103486e-01 -5.583134e-01 -1.607964e-02
2.976923e+00    -5.864189e-01 1.328593e-01 3.525181e-01 7.161737e-02 -2.829314e-01 -2.432972e-01 -2.951143e-01 -4.741306e-01
                3.542019e-01 7.183376e-02 -5.820428e-01 1.297942e-01 -2.954753e-01 -4.736728e-01 -2.815209e-01 -2.445634e-01
                -2.842892e-01 -2.444940e-01 -2.954290e-01 -4.735987e-01 -5.820491e-01 1.325472e-01 3.521924e-01 7.070486e-02
                -2.965630e-01 -4.764073e-01 -2.814857e-01 -2.445153e-01 3.522126e-01 7.071516e-02 -5.827097e-01 1.286106e-01
3.079231e+00    -5.558770e-01 2.511974e-01 3.650229e-01 1.476616e-02 -3.345205e-01 -1.946776e-01 -3.779326e-01 -3.767400e-01
                3.667707e-01 1.497643e-02 -5.522727e-01 2.471670e-01 -3.779877e-01 -3.763369e-01 -3.332770e-01 -1.965178e-01
                -3.361157e-01 -1.954155e-01 -3.779389e-01 -3.763193e-01 -5.520680e-01 2.497847e-01 3.642577e-01 1.419948e-02
                -3.797738e-01 -3.783619e-01 -3.332553e-01 -1.965562e-01 3.642695e-01 1.416950e-02 -5.536049e-01 2.458398e-01
3.181538e+00    -5.052267e-01 3.681380e-01 3.673405e-01 -2.691932e-02 -3.834583e-01 -1.160254e-01 -4.419930e-01 -2.531517e-01
                3.691113e-01 -2.707254e-02 -5.026127e-01 3.638258e-01 -4.418816e-01 -2.527790e-01 -3.827296e-01 -1.184947e-01
                -3.852581e-01 -1.165223e-01 -4.418226e-01 -2.527498e-01 -5.023286e-01 3.661599e-01 3.661905e-01 -2.721982e-02
                -4.441051e-01 -2.542935e-01 -3.826994e-01 -1.184902e-01 3.662060e-01 -2.722951e-02 -5.046255e-01 3.623218e-01
3.283846e+00    -4.287469e-01 4.502467e-01 3.719428e-01 -8.488630e-02 -4.130936e-01 -3.713355e-02 -4.750766e-01 -1.353158e-01
                3.737237e-01 -8.533745e-02 -4.269927e-01 4.458754e-01 -4.748558e-01 -1.350838e-01 -4.130618e-01 -4.001970e-02
                -4.150290e-01 -3.727077e-02 -4.747901e-01 -1.350672e-01 -4.268232e-01 4.480178e-01 3.705846e-01 -8.469337e-02
                -4.773377e-01 -1.359093e-01 -4.130265e-01 -4.001780e-02 3.706021e-01 -8.470458e-02 -4.296608e-01 4.445741e-01
3.386154e+00    -3.426360e-01 5.025328e-01 3.679544e-01 -1.532578e-01 -4.277185e-01 4.829587e-02 -4.851709e-01 -1.785325e-02
                3.697048e-01 -1.540450e-01 -3.415476e-01 4.983210e-01 -4.849406e-01 -1.778264e-02 -4.285477e-01 4.522354e-02
                -4.297166e-01 4.855706e-02 -4.848719e-01 -1.778080e-02 -3.416440e-01 5.004041e-01 3.665889e-01 -1.524896e-01
                -4.874714e-01 -1.789424e-02 -4.285101e-01 4.521890e-02 3.666071e-01 -1.525046e-01 -3.447671e-01 4.974367e-01
3.488462e+00    -2.569576e-01 5.270777e-01 3.493285e-01 -2.300373e-01 -4.243060e-01 1.400871e-01 -4.722280e-01 9.899147e-02
                3.509775e-01 -2.311967e-01 -2.562748e-01 5.231129e-01 -4.720898e-01 9.893123e-02 -4.260963e-01 1.371302e-01
                -4.262806e-01 1.407774e-01 -4.720212e-01 9.891741e-02 -2.567270e-01 5.253366e-01 3.481805e-01 -2.286760e-01
                -4.744588e-01 9.950031e-02 -4.260588e-01 1.371175e-01 3.481981e-01 -2.286958e-01 -2.599116e-01 5.228085e-01
3.590769e+00    -1.805140e-01 5.284349e-01 3.100190e-01 -3.111110e-01 -3.981038e-01 2.354278e-01 -4.340049e-01 2.127299e-01
                3.114661e-01 -3.126602e-01 -1.799746e-01 5.246420e-01 -4.340500e-01 2.126257e-01 -4.008481e-01 2.329536e-01
                -3.999468e-01 2.365624e-01 -4.339848e-01 2.125959e-01 -1.807750e-01 5.272464e-01 3.093343e-01 -3.092119e-01
                -4.360464e-01 2.137725e-01 -4.008134e-01 2.329323e-01 3.093501e-01 -3.092374e-01 -1.838761e-01 5.250429e-01
3.693077e+00    -1.198918e-01 5.144564e-01 2.448401e-01 -3.890573e-01 -3.441779e-01 3.279600e-01 -3.680903e-01 3.175126e-01
                2.459599e-01 -3.909784e-01 -1.193121e-01 5.105929e-01 -3.683805e-01 3.175258e-01 -3.477100e-01 3.263686e-01
                -3.457594e-01 3.295234e-01 -3.683225e-01 3.174809e-01 -1.203361e-01 5.137978e-01 2.448742e-01 -3.867705e-01
                -3.698127e-01 3.190448e-01 -3.476814e-01 3.263388e-01 2.448864e-01 -3.868021e-01 -1.233211e-01 5.117999e-01
3.795385e+00    -7.674886e-02 4.961297e-01 1.514328e-01 -4.528986e-01 -2.593852e-01 4.075906e-01 -2.749903e-01 4.040060e-01
                1.520885e-01 -4.551207e-01 -7.610799e-02 4.918054e-01 -2.755166e-01 4.044121e-01 -2.633354e-01 4.072452e-01
                -2.605612e-01 4.095195e-01 -2.754692e-01 4.043542e-01 -7.715089e-02 4.957229e-01 1.524315e-01 -4.504930e-01
                -2.762671e-01 4.059392e-01 -2.633170e-01 4.072086e-01 1.524384e-01 -4.505308e-01 -8.008949e-02 4.939363e-01
3.897692e+00    -4.282231e-02 4.848780e-01 3.166903e-02 -4.894632e-01 -1.426426e-01 4.618312e-01 -1.622934e-01 4.618411e-01
                3.173158e-02 -4.918509e-01 -4.234736e-02 4.795349e-01 -1.628677e-01 4.631583e-01 -1.464243e-01 4.629685e-01
                -1.432653e-01 4.640030e-01 -1.628320e-01 4.630913e-01 -4.329107e-02 4.840926e-01 3.388108e-02 -4.873679e-01
                -1.630357e-01 4.640389e-01 -1.464214e-01 4.629289e-01 3.388080e-02 -4.874121e-01 -4.622410e-02 4.829000e-01
4.000000e+00    1.730509e-02 4.811122e-01 -1.159538e-01 -4.813027e-01 2.035106e-02 4.726144e-01 -5.426356e-02 4.895832e-01
                -1.166270e-01 -4.836300e-01 1.657878e-02 4.734748e-01 -5.383397e-02 4.933218e-01 1.748856e-02 4.753495e-01
                2.049515e-02 4.748175e-01 -5.380284e-02 4.932483e-01 1.524470e-02 4.785268e-01 -1.119885e-01 -4.804557e-01
                -5.449870e-02 4.919064e-01 1.746407e-02 4.753188e-01 -1.119970e-01 -4.805096e-01 1.296762e-02 4.796354e-01
