! Generated by EMerge - 4-port S-parameters
! File generated: 2026-03-01 09:40 
! --- Double-Box Branch-Line Coupler 2000 MHz ---
! Substrate: RO4003C
! h = 0.508 mm
! W50 = 1.1 mm, W35 = 1.9 mm, W121 = 0.1 mm
! Lx = 22.2 mm, Ly = 22.2 mm
! L_feed = 5 mm
! Run time = 2.49 min
# GHZ S RI R 50
1.000000e-02    -4.832826e-01 1.065167e-03 4.937459e-01 -1.156463e-02 4.937587e-01 -1.076432e-02 4.937277e-01 -1.296765e-02
                4.937491e-01 -1.156470e-02 -4.832648e-01 1.058627e-03 4.937253e-01 -1.296664e-02 4.937563e-01 -1.075866e-02
                4.937613e-01 -1.076438e-02 4.937248e-01 -1.296662e-02 -4.832674e-01 1.064104e-03 4.937437e-01 -1.156441e-02
                4.937305e-01 -1.296774e-02 4.937558e-01 -1.075867e-02 4.937438e-01 -1.156443e-02 -4.832666e-01 1.059511e-03
1.123077e-01    -4.934431e-01 1.437832e-02 4.730521e-01 -1.267832e-01 4.744868e-01 -1.179437e-01 4.709045e-01 -1.425244e-01
                4.730552e-01 -1.267840e-01 -4.934340e-01 1.430489e-02 4.709051e-01 -1.425135e-01 4.744929e-01 -1.178805e-01
                4.744893e-01 -1.179443e-01 4.709045e-01 -1.425133e-01 -4.934278e-01 1.436606e-02 4.730507e-01 -1.267812e-01
                4.709070e-01 -1.425254e-01 4.744924e-01 -1.178806e-01 4.730508e-01 -1.267814e-01 -4.934351e-01 1.431515e-02
2.146154e-01    -5.165843e-01 3.995241e-02 4.219327e-01 -2.280404e-01 4.270659e-01 -2.119020e-01 4.139761e-01 -2.580405e-01
                4.219355e-01 -2.280418e-01 -5.165990e-01 3.981331e-02 4.139845e-01 -2.580218e-01 4.270946e-01 -2.117836e-01
                4.270681e-01 -2.119031e-01 4.139839e-01 -2.580216e-01 -5.165698e-01 3.992857e-02 4.219325e-01 -2.280381e-01
                4.139783e-01 -2.580422e-01 4.270941e-01 -2.117838e-01 4.219325e-01 -2.280385e-01 -5.165980e-01 3.983457e-02
3.169231e-01    -5.435309e-01 8.452551e-02 3.492934e-01 -3.069594e-01 3.601502e-01 -2.849539e-01 3.314316e-01 -3.510001e-01
                3.492957e-01 -3.069613e-01 -5.435859e-01 8.432383e-02 3.314510e-01 -3.509772e-01 3.602160e-01 -2.847848e-01
                3.601521e-01 -2.849553e-01 3.314504e-01 -3.509768e-01 -5.435196e-01 8.449096e-02 3.492928e-01 -3.069587e-01
                3.314332e-01 -3.510025e-01 3.602153e-01 -2.847851e-01 3.492927e-01 -3.069592e-01 -5.435806e-01 8.435952e-02
4.192308e-01    -5.636270e-01 1.491530e-01 2.653820e-01 -3.605935e-01 2.835067e-01 -3.348715e-01 2.327994e-01 -4.181542e-01
                2.653839e-01 -3.605958e-01 -5.637405e-01 1.488949e-01 2.328318e-01 -4.181312e-01 2.836241e-01 -3.346588e-01
                2.835082e-01 -3.348731e-01 2.328313e-01 -4.181307e-01 -5.636224e-01 1.491116e-01 2.653775e-01 -3.605943e-01
                2.328002e-01 -4.181570e-01 2.836232e-01 -3.346590e-01 2.653773e-01 -3.605949e-01 -5.637268e-01 1.489503e-01
5.215385e-01    -5.676301e-01 2.302280e-01 1.789559e-01 -3.902631e-01 2.050654e-01 -3.636877e-01 1.257566e-01 -4.602167e-01
                1.789573e-01 -3.902657e-01 -5.678214e-01 2.299237e-01 1.258031e-01 -4.601981e-01 2.052493e-01 -3.634417e-01
                2.050665e-01 -3.636894e-01 1.258026e-01 -4.601974e-01 -5.676341e-01 2.301876e-01 1.789433e-01 -3.902624e-01
                1.257566e-01 -4.602198e-01 2.052483e-01 -3.634420e-01 1.789430e-01 -3.902631e-01 -5.677918e-01 2.300056e-01
6.238462e-01    -5.488989e-01 3.213672e-01 9.620484e-02 -3.995074e-01 1.296652e-01 -3.755285e-01 1.498137e-02 -4.795759e-01
                9.620564e-02 -3.995102e-01 -5.491886e-01 3.210327e-01 1.504222e-02 -4.795662e-01 1.299306e-01 -3.752641e-01
                1.296660e-01 -3.755302e-01 1.504185e-02 -4.795652e-01 -5.489102e-01 3.213395e-01 9.618122e-02 -3.994983e-01
                1.498052e-02 -4.795790e-01 1.299294e-01 -3.752643e-01 9.618071e-02 -3.994991e-01 -5.491307e-01 3.211479e-01
7.261538e-01    -5.032745e-01 4.148343e-01 2.106511e-02 -3.924825e-01 5.913663e-02 -3.747156e-01 -9.758047e-02 -4.782699e-01
                2.106533e-02 -3.924853e-01 -5.036832e-01 4.144926e-01 -9.750532e-02 -4.782742e-01 5.949762e-02 -3.744536e-01
                5.913717e-02 -3.747171e-01 -9.750547e-02 -4.782730e-01 -5.032857e-01 4.148330e-01 2.103128e-02 -3.924542e-01
                -9.758221e-02 -4.782729e-01 5.949628e-02 -3.744537e-01 2.103066e-02 -3.924549e-01 -5.035784e-01 4.146456e-01
8.284615e-01    -4.285299e-01 5.020281e-01 -4.390839e-02 -3.733044e-01 -7.041490e-03 -3.644698e-01 -2.117560e-01 -4.565885e-01
                -4.390878e-02 -3.733073e-01 -4.290776e-01 5.017118e-01 -2.116670e-01 -4.566130e-01 -6.573134e-03 -3.642394e-01
                -7.041048e-03 -3.644712e-01 -2.116669e-01 -4.566115e-01 -4.285259e-01 5.020666e-01 -4.394467e-02 -3.732436e-01
                -2.117587e-01 -4.565911e-01 -6.574708e-03 -3.642393e-01 -4.394536e-02 -3.732444e-01 -4.288999e-01 5.019016e-01
9.307692e-01    -3.241294e-01 5.731168e-01 -9.679835e-02 -3.463220e-01 -7.092455e-02 -3.459326e-01 -3.278629e-01 -4.120848e-01
                -9.679936e-02 -3.463247e-01 -3.248323e-01 5.728726e-01 -3.277615e-01 -4.121383e-01 -7.034335e-02 -3.457739e-01
                -7.092407e-02 -3.459338e-01 -3.277609e-01 -4.121366e-01 -3.240865e-01 5.732046e-01 -9.681883e-02 -3.462161e-01
                -3.278664e-01 -4.120868e-01 -7.034520e-02 -3.457736e-01 -9.681953e-02 -3.462170e-01 -3.245494e-01 5.730866e-01
1.033077e+00    -1.919396e-01 6.161003e-01 -1.363173e-01 -3.171684e-01 -1.349318e-01 -3.170936e-01 -4.448865e-01 -3.387228e-01
                -1.363189e-01 -3.171706e-01 -1.928029e-01 6.159936e-01 -4.447775e-01 -3.388177e-01 -1.342461e-01 -3.170608e-01
                -1.349312e-01 -3.170949e-01 -4.447762e-01 -3.388158e-01 -1.918251e-01 6.162374e-01 -1.362901e-01 -3.170126e-01
                -4.448910e-01 -3.387239e-01 -1.342482e-01 -3.170600e-01 -1.362907e-01 -3.170137e-01 -1.923797e-01 6.162004e-01
1.135385e+00    -3.880930e-02 6.159623e-01 -1.634972e-01 -2.941474e-01 -1.993734e-01 -2.716533e-01 -5.572340e-01 -2.264053e-01
                -1.634993e-01 -2.941490e-01 -3.981109e-02 6.160809e-01 -5.571297e-01 -2.265584e-01 -1.986197e-01 -2.718136e-01
                -1.993724e-01 -2.716547e-01 -5.571274e-01 -2.265567e-01 -3.858418e-02 6.161311e-01 -1.633778e-01 -2.939573e-01
                -5.572392e-01 -2.264051e-01 -1.986220e-01 -2.718120e-01 -1.633785e-01 -2.939590e-01 -3.922105e-02 6.162207e-01
1.237692e+00    1.178418e-01 5.562166e-01 -1.864612e-01 -2.879220e-01 -2.571630e-01 -1.996384e-01 -6.488226e-01 -6.296495e-02
                -1.864635e-01 -2.879228e-01 1.167796e-01 5.566595e-01 -6.487511e-01 -6.319380e-02 -2.564288e-01 -2.000589e-01
                -2.571618e-01 -1.996404e-01 -6.487477e-01 -6.319259e-02 1.182117e-01 5.563702e-01 -1.862062e-01 -2.877511e-01
                -6.488281e-01 -6.296290e-02 -2.564309e-01 -2.000562e-01 -1.862072e-01 -2.877537e-01 1.175279e-01 5.566395e-01
1.340000e+00    2.432977e-01 4.289283e-01 -2.269784e-01 -3.035621e-01 -2.868803e-01 -9.564915e-02 -6.862712e-01 1.553924e-01
                -2.269804e-01 -3.035621e-01 2.423360e-01 4.297550e-01 -6.862840e-01 1.550849e-01 -2.863230e-01 -9.635130e-02
                -2.868792e-01 -9.565205e-02 -6.862795e-01 1.550849e-01 2.438110e-01 4.289846e-01 -2.265829e-01 -3.035080e-01
                -6.862763e-01 1.553966e-01 -2.863241e-01 -9.634742e-02 -2.265852e-01 -3.035120e-01 2.431552e-01 4.294732e-01
1.442308e+00    2.925593e-01 2.573566e-01 -3.147746e-01 -3.203993e-01 -2.581262e-01 2.069686e-02 -6.260097e-01 4.010555e-01
                -3.147758e-01 -3.203988e-01 2.919038e-01 2.584944e-01 -6.261693e-01 4.007088e-01 -2.579394e-01 1.981510e-02
                -2.581261e-01 2.069309e-02 -6.261642e-01 4.007068e-01 2.931319e-01 2.572337e-01 -3.143197e-01 -3.205611e-01
                -6.260133e-01 4.010618e-01 -2.579386e-01 1.981949e-02 -3.143246e-01 -3.205660e-01 2.926052e-01 2.579265e-01
1.544615e+00    2.506318e-01 1.035921e-01 -4.505631e-01 -2.859680e-01 -1.681498e-01 9.839298e-02 -4.548577e-01 6.070181e-01
                -4.505635e-01 -2.859678e-01 2.503750e-01 1.048153e-01 -4.551916e-01 6.067200e-01 -1.684348e-01 9.758166e-02
                -1.681511e-01 9.838909e-02 -4.551870e-01 6.067157e-01 2.511011e-01 1.033061e-01 -4.501939e-01 -2.863564e-01
                -4.548588e-01 6.070257e-01 -1.684320e-01 9.758511e-02 -4.502025e-01 -2.863603e-01 2.507668e-01 1.041220e-01
1.646923e+00    1.614631e-01 1.811860e-02 -5.814295e-01 -1.653003e-01 -6.595711e-02 1.039335e-01 -2.195092e-01 7.171002e-01
                -5.814296e-01 -1.653009e-01 1.614786e-01 1.922825e-02 -2.199792e-01 7.169377e-01 -6.662412e-02 1.034642e-01
                -6.595967e-02 1.039305e-01 -2.199761e-01 7.169314e-01 1.617096e-01 1.784298e-02 -5.812440e-01 -1.658223e-01
                -2.195077e-01 7.171080e-01 -6.662033e-02 1.034656e-01 -5.812556e-01 -1.658231e-01 1.615503e-01 1.870565e-02
1.749231e+00    8.172408e-02 -5.033971e-03 -6.497369e-01 1.853035e-02 -2.685327e-03 6.096195e-02 1.896918e-02 7.308800e-01
                -6.497375e-01 1.852922e-02 8.180005e-02 -4.035544e-03 1.843253e-02 7.308925e-01 -3.522160e-03 6.099196e-02
                -2.688213e-03 6.096023e-02 1.843343e-02 7.308849e-01 8.179194e-02 -5.054240e-03 -6.497405e-01 1.797391e-02
                1.897320e-02 7.308869e-01 -3.518957e-03 6.099125e-02 -6.497536e-01 1.797762e-02 8.176623e-02 -4.148935e-03
1.851538e+00    3.426007e-02 3.930181e-04 -6.383445e-01 2.183211e-01 1.410299e-02 1.454365e-02 2.309352e-01 6.754277e-01
                -6.383455e-01 2.183199e-01 3.428349e-02 1.450617e-03 2.303864e-01 6.756208e-01 1.332204e-02 1.511598e-02
                1.410064e-02 1.454292e-02 2.303849e-01 6.756127e-01 3.435607e-02 8.160147e-04 -6.385117e-01 2.177804e-01
                2.309412e-01 6.754332e-01 1.332369e-02 1.511420e-02 -6.385244e-01 2.177889e-01 3.447459e-02 1.807617e-03
1.953846e+00    1.603424e-02 7.888375e-03 -5.577765e-01 4.001121e-01 7.076751e-03 -9.081040e-03 4.095212e-01 5.710931e-01
                -5.577780e-01 4.001110e-01 1.605562e-02 9.226194e-03 4.089971e-01 5.714744e-01 6.562835e-03 -7.987301e-03
                7.075361e-03 -9.081522e-03 4.089930e-01 5.714665e-01 1.646440e-02 8.814641e-03 -5.580976e-01 3.996174e-01
                4.095287e-01 5.710967e-01 6.562819e-03 -7.988950e-03 -5.581084e-01 3.996304e-01 1.680727e-02 9.921430e-03
2.056154e+00    1.628148e-02 2.858225e-03 -4.233833e-01 5.453896e-01 3.523545e-03 -8.413320e-03 5.520048e-01 4.279491e-01
                -4.233851e-01 5.453889e-01 1.651158e-02 4.657673e-03 5.515508e-01 4.285453e-01 3.490398e-03 -6.867750e-03
                3.522986e-03 -8.414429e-03 5.515441e-01 4.285383e-01 1.738692e-02 4.189928e-03 -4.238505e-01 5.449870e-01
                5.520133e-01 4.279505e-01 3.489315e-03 -6.868284e-03 -4.238579e-01 5.450041e-01 1.808005e-02 5.377104e-03
2.158462e+00    2.270458e-02 -2.239403e-02 -2.487004e-01 6.407905e-01 2.177775e-02 6.615588e-04 6.532407e-01 2.519731e-01
                -2.487024e-01 6.407898e-01 2.350074e-02 -2.007048e-02 6.529468e-01 2.528176e-01 2.245371e-02 2.515670e-03
                2.177730e-02 6.591273e-04 6.529376e-01 2.528121e-01 2.479822e-02 -2.093002e-02 -2.492715e-01 6.405335e-01
                6.532496e-01 2.519719e-01 2.245265e-02 2.516696e-03 -2.492741e-01 6.405540e-01 2.596934e-02 -1.979094e-02
2.260769e+00    2.108734e-02 -7.121089e-02 -5.041285e-02 6.721961e-01 6.411781e-02 -6.717326e-03 7.046449e-01 4.920129e-02
                -5.041521e-02 6.721955e-01 2.290995e-02 -6.852931e-02 7.046696e-01 5.028342e-02 6.572210e-02 -4.823753e-03
                6.411626e-02 -6.721184e-03 7.046583e-01 5.028036e-02 2.437207e-02 -7.007301e-02 -5.100500e-02 6.720969e-01
                7.046537e-01 4.919748e-02 6.572236e-02 -4.821538e-03 -5.100116e-02 6.721192e-01 2.608758e-02 -6.921201e-02
2.363077e+00    -6.551791e-03 -1.406532e-01 1.437293e-01 6.289483e-01 1.121776e-01 -5.280992e-02 6.933368e-01 -1.702768e-01
                1.437263e-01 6.289482e-01 -3.292930e-03 -1.381326e-01 6.938770e-01 -1.690952e-01 1.148260e-01 -5.131789e-02
                1.121738e-01 -5.281431e-02 6.938640e-01 -1.690950e-01 -2.109561e-03 -1.404606e-01 1.431790e-01 6.289343e-01
                6.933449e-01 -1.702834e-01 1.148285e-01 -5.131586e-02 1.431905e-01 6.289558e-01 7.725011e-05 -1.401731e-01
2.465385e+00    -7.961698e-02 -2.141686e-01 2.953248e-01 5.183764e-01 1.310899e-01 -1.398601e-01 6.047892e-01 -3.844009e-01
                2.953214e-01 5.183775e-01 -7.488113e-02 -2.126668e-01 6.059497e-01 -3.834352e-01 1.346254e-01 -1.393299e-01
                1.310836e-01 -1.398633e-01 6.059362e-01 -3.834311e-01 -7.444463e-02 -2.155554e-01 2.947590e-01 5.183405e-01
                6.047956e-01 -3.844105e-01 1.346297e-01 -1.393301e-01 2.947776e-01 5.183576e-01 -7.205207e-02 -2.160941e-01
2.567692e+00    -2.037365e-01 -2.571487e-01 3.754398e-01 3.767579e-01 9.238670e-02 -2.384998e-01 4.380279e-01 -5.542675e-01
                3.754370e-01 3.767605e-01 -1.981336e-01 -2.574896e-01 4.396545e-01 -5.538999e-01 9.627474e-02 -2.393627e-01
                9.237911e-02 -2.385002e-01 4.396418e-01 -5.538915e-01 -1.986719e-01 -2.604307e-01 3.746835e-01 3.767172e-01
                4.380315e-01 -5.542798e-01 9.627881e-02 -2.393666e-01 3.747064e-01 3.767271e-01 -1.964754e-01 -2.618560e-01
2.670000e+00    -3.529912e-01 -2.352763e-01 3.906585e-01 2.513710e-01 1.754987e-03 -3.059757e-01 2.234973e-01 -6.421590e-01
                3.906579e-01 2.513744e-01 -3.475816e-01 -2.376917e-01 2.251872e-01 -6.425851e-01 5.274942e-03 -3.082409e-01
                1.748267e-03 -3.059736e-01 2.251764e-01 -6.425728e-01 -3.489421e-01 -2.401643e-01 3.896056e-01 2.515454e-01
                2.234972e-01 -6.421733e-01 5.275925e-03 -3.082480e-01 3.896290e-01 2.515476e-01 -3.472971e-01 -2.422910e-01
2.772308e+00    -4.825210e-01 -1.446455e-01 3.758590e-01 1.649094e-01 -1.072507e-01 -3.221669e-01 1.048350e-02 -6.415588e-01
                3.758613e-01 1.649113e-01 -4.781972e-01 -1.486613e-01 1.182498e-02 -6.426692e-01 -1.046304e-01 -3.254341e-01
                -1.072555e-01 -3.221642e-01 1.181683e-02 -6.426539e-01 -4.799929e-01 -1.503868e-01 3.746313e-01 1.655673e-01
                1.047879e-02 -6.415747e-01 -1.046346e-01 -3.254421e-01 3.746523e-01 1.655634e-01 -4.790654e-01 -1.529078e-01
2.874615e+00    -5.617058e-01 -1.133024e-02 3.609197e-01 1.094760e-01 -2.058883e-01 -2.959326e-01 -1.661911e-01 -5.765301e-01
                3.609243e-01 1.094725e-01 -5.588298e-01 -1.617895e-02 -1.654243e-01 -5.780410e-01 -2.043464e-01 -2.996768e-01
                -2.058923e-01 -2.959323e-01 -1.654305e-01 -5.780227e-01 -5.606724e-01 -1.713426e-02 3.598055e-01 1.107445e-01
                -1.662018e-01 -5.765484e-01 -2.043571e-01 -2.996831e-01 3.598230e-01 1.107362e-01 -5.604600e-01 -1.977429e-02
2.976923e+00    -5.853098e-01 1.343457e-01 3.562238e-01 6.870235e-02 -2.842123e-01 -2.433428e-01 -2.972484e-01 -4.755948e-01
                3.562266e-01 6.868077e-02 -5.838143e-01 1.293654e-01 -2.971011e-01 -4.772146e-01 -2.836759e-01 -2.471129e-01
                -2.842235e-01 -2.433519e-01 -2.971097e-01 -4.771884e-01 -5.853947e-01 1.290493e-01 3.555432e-01 7.053595e-02
                -2.972743e-01 -4.756227e-01 -2.836990e-01 -2.471121e-01 3.555555e-01 7.052251e-02 -5.858202e-01 1.265008e-01
3.079231e+00    -5.551826e-01 2.523753e-01 3.675863e-01 1.125867e-02 -3.359604e-01 -1.944002e-01 -3.803857e-01 -3.773583e-01
                3.675770e-01 1.134541e-02 -5.545634e-01 2.471294e-01 -3.807086e-01 -3.789297e-01 -3.361167e-01 -1.982991e-01
                -3.359272e-01 -1.943371e-01 -3.806576e-01 -3.789406e-01 -5.560231e-01 2.474683e-01 3.673657e-01 1.328562e-02
                -3.803579e-01 -3.772826e-01 -3.360727e-01 -1.983045e-01 3.673888e-01 1.329766e-02 -5.569345e-01 2.448497e-01
3.181538e+00    -5.050927e-01 3.688938e-01 3.685372e-01 -3.087547e-02 -3.849400e-01 -1.156706e-01 -4.443790e-01 -2.529296e-01
                3.685486e-01 -3.085541e-02 -5.054690e-01 3.643063e-01 -4.452005e-01 -2.542458e-01 -3.858580e-01 -1.190674e-01
                -3.849228e-01 -1.156583e-01 -4.451840e-01 -2.542428e-01 -5.061674e-01 3.649432e-01 3.691548e-01 -2.858475e-02
                -4.443737e-01 -2.529181e-01 -3.858568e-01 -1.190714e-01 3.691727e-01 -2.859181e-02 -5.076269e-01 3.627222e-01
3.283846e+00    -4.291732e-01 4.510788e-01 3.719199e-01 -8.873232e-02 -4.145812e-01 -3.649556e-02 -4.771136e-01 -1.343534e-01
                3.719316e-01 -8.872264e-02 -4.301021e-01 4.470079e-01 -4.782766e-01 -1.353320e-01 -4.159866e-01 -3.946073e-02
                -4.145669e-01 -3.649057e-02 -4.782613e-01 -1.353279e-01 -4.301161e-01 4.477719e-01 3.733674e-01 -8.655333e-02
                -4.771130e-01 -1.343467e-01 -4.159901e-01 -3.946031e-02 3.733836e-01 -8.656447e-02 -4.319808e-01 4.459075e-01
3.386154e+00    -3.435190e-01 5.036751e-01 3.668671e-01 -1.566836e-01 -4.291616e-01 4.921257e-02 -4.866961e-01 -1.638969e-02
                3.668784e-01 -1.566794e-01 -3.447782e-01 5.000977e-01 -4.880791e-01 -1.696611e-02 -4.309035e-01 4.670612e-02
                -4.291487e-01 4.921321e-02 -4.880629e-01 -1.696326e-02 -3.440767e-01 5.007529e-01 3.691184e-01 -1.549033e-01
                -4.866971e-01 -1.638354e-02 -4.309077e-01 4.671033e-02 3.691332e-01 -1.549180e-01 -3.462525e-01 4.993088e-01
3.488462e+00    -2.581134e-01 5.287051e-01 3.473899e-01 -2.327679e-01 -4.256821e-01 1.412900e-01 -4.732023e-01 1.007312e-01
                3.474002e-01 -2.327677e-01 -2.595421e-01 5.255776e-01 -4.746710e-01 1.005950e-01 -4.276225e-01 1.392616e-01
                -4.256704e-01 1.412870e-01 -4.746538e-01 1.005958e-01 -2.581657e-01 5.258469e-01 3.503386e-01 -2.316777e-01
                -4.732034e-01 1.007376e-01 -4.276256e-01 1.392691e-01 3.503514e-01 -2.316965e-01 -2.605288e-01 5.248856e-01
3.590769e+00    -1.816797e-01 5.306132e-01 3.075289e-01 -3.129264e-01 -3.993897e-01 2.369608e-01 -4.344812e-01 2.145882e-01
                3.075378e-01 -3.129294e-01 -1.831647e-01 5.278995e-01 -4.358793e-01 2.148893e-01 -4.013851e-01 2.354231e-01
                -3.993795e-01 2.369544e-01 -4.358612e-01 2.148873e-01 -1.812704e-01 5.274865e-01 3.109636e-01 -3.128069e-01
                -4.344817e-01 2.145951e-01 -4.013857e-01 2.354334e-01 3.109732e-01 -3.128301e-01 -1.836485e-01 5.270439e-01
3.693077e+00    -1.207799e-01 5.170673e-01 2.421921e-01 -3.898368e-01 -3.453074e-01 3.299057e-01 -3.681553e-01 3.194570e-01
                2.421990e-01 -3.898428e-01 -1.222294e-01 5.147820e-01 -3.693062e-01 3.201151e-01 -3.471867e-01 3.288631e-01
                -3.452996e-01 3.298962e-01 -3.692877e-01 3.201101e-01 -1.201321e-01 5.134180e-01 2.457753e-01 -3.909157e-01
                -3.681547e-01 3.194638e-01 -3.471835e-01 3.288755e-01 2.457797e-01 -3.909433e-01 -1.222908e-01 5.134634e-01
3.795385e+00    -7.718756e-02 4.988017e-01 1.491147e-01 -4.526617e-01 -2.602132e-01 4.100306e-01 -2.746420e-01 4.061849e-01
                1.491191e-01 -4.526701e-01 -7.847221e-02 4.970730e-01 -2.753794e-01 4.069749e-01 -2.617491e-01 4.094679e-01
                -2.602088e-01 4.100186e-01 -2.753609e-01 4.069669e-01 -7.666895e-02 4.945958e-01 1.523842e-01 -4.550463e-01
                -2.746402e-01 4.061906e-01 -2.617407e-01 4.094812e-01 1.523810e-01 -4.550774e-01 -7.831453e-02 4.949543e-01
3.897692e+00    -4.307961e-02 4.869303e-01 3.041555e-02 -4.884120e-01 -1.430308e-01 4.647750e-01 -1.611182e-01 4.646627e-01
                3.041810e-02 -4.884222e-01 -4.394163e-02 4.861263e-01 -1.613908e-01 4.650580e-01 -1.439476e-01 4.646209e-01
                -1.430312e-01 4.647616e-01 -1.613731e-01 4.650469e-01 -4.305621e-02 4.825861e-01 3.282366e-02 -4.920176e-01
                -1.611152e-01 4.646663e-01 -1.439320e-01 4.646333e-01 3.281051e-02 -4.920501e-01 -4.393386e-02 4.827498e-01
4.000000e+00    1.459278e-02 4.817230e-01 -1.133470e-01 -4.808011e-01 1.936116e-02 4.765584e-01 -4.917910e-02 4.935660e-01
                -1.133319e-01 -4.808123e-01 1.402885e-02 4.833093e-01 -4.961657e-02 4.920296e-01 1.835603e-02 4.768261e-01
                1.935424e-02 4.765463e-01 -4.961144e-02 4.920134e-01 1.436517e-02 4.788810e-01 -1.124119e-01 -4.852953e-01
                -4.916421e-02 4.935668e-01 1.838378e-02 4.768334e-01 -1.124279e-01 -4.853233e-01 1.293443e-02 4.774297e-01
