! Generated by EMerge - 4-port S-parameters
! File generated: 2026-02-16 17:40 
! --- Branch-Line Coupler 2000 MHz ---
! Substrate: RO4003C
! h = 0.508 mm
! W50 = 1.1 mm, W35 = 1.87 mm
! L35 = 22 mm, L50 = 22 mm
! L_feed = 5 mm
! Run time = 1.62 min
# GHZ S RI R 50
1.000000e-01    -4.857517e-01 1.501265e-02 4.878266e-01 -6.774825e-02 4.869161e-01 -7.637639e-02 4.858789e-01 -8.872608e-02
                4.878265e-01 -6.774819e-02 -4.857552e-01 1.499772e-02 4.858786e-01 -8.871530e-02 4.869171e-01 -7.637190e-02
                4.869163e-01 -7.637658e-02 4.858790e-01 -8.871558e-02 -4.857504e-01 1.501158e-02 4.878270e-01 -6.775770e-02
                4.858788e-01 -8.872605e-02 4.869171e-01 -7.637193e-02 4.878267e-01 -6.775748e-02 -4.857511e-01 1.501699e-02
1.743590e-01    -4.909407e-01 2.791062e-02 4.753837e-01 -1.161737e-01 4.725948e-01 -1.311885e-01 4.694290e-01 -1.526722e-01
                4.753836e-01 -1.161736e-01 -4.909496e-01 2.788488e-02 4.694293e-01 -1.526527e-01 4.725964e-01 -1.311805e-01
                4.725950e-01 -1.311888e-01 4.694296e-01 -1.526532e-01 -4.909397e-01 2.790812e-02 4.753851e-01 -1.161907e-01
                4.694290e-01 -1.526721e-01 4.725964e-01 -1.311805e-01 4.753848e-01 -1.161903e-01 -4.909374e-01 2.791727e-02
2.487179e-01    -4.981547e-01 4.346679e-02 4.569566e-01 -1.615848e-01 4.512124e-01 -1.829317e-01 4.447342e-01 -2.134665e-01
                4.569566e-01 -1.615847e-01 -4.981719e-01 4.343067e-02 4.447356e-01 -2.134372e-01 4.512151e-01 -1.829200e-01
                4.512126e-01 -1.829322e-01 4.447358e-01 -2.134379e-01 -4.981542e-01 4.346181e-02 4.569591e-01 -1.616104e-01
                4.447342e-01 -2.134665e-01 4.512151e-01 -1.829201e-01 4.569589e-01 -1.616099e-01 -4.981473e-01 4.347427e-02
3.230769e-01    -5.064750e-01 6.249226e-02 4.334286e-01 -2.030109e-01 4.235757e-01 -2.305962e-01 4.125621e-01 -2.700567e-01
                4.334286e-01 -2.030108e-01 -5.065035e-01 6.244627e-02 4.125658e-01 -2.700162e-01 4.235799e-01 -2.305804e-01
                4.235758e-01 -2.305968e-01 4.125658e-01 -2.700170e-01 -5.064757e-01 6.248327e-02 4.334323e-01 -2.030463e-01
                4.125621e-01 -2.700567e-01 4.235800e-01 -2.305806e-01 4.334323e-01 -2.030456e-01 -5.064624e-01 6.249844e-02
3.974359e-01    -5.147973e-01 8.551151e-02 4.058553e-01 -2.397590e-01 3.906334e-01 -2.734310e-01 3.738079e-01 -3.216417e-01
                4.058553e-01 -2.397588e-01 -5.148400e-01 8.545620e-02 3.738158e-01 -3.215883e-01 3.906401e-01 -2.734110e-01
                3.906334e-01 -2.734317e-01 3.738157e-01 -3.215892e-01 -5.148002e-01 8.549648e-02 4.058601e-01 -2.398058e-01
                3.738081e-01 -3.216417e-01 3.906402e-01 -2.734112e-01 4.058602e-01 -2.398050e-01 -5.147790e-01 8.551361e-02
4.717949e-01    -5.219208e-01 1.127413e-01 3.753750e-01 -2.714316e-01 3.533846e-01 -3.109533e-01 3.294022e-01 -3.676774e-01
                3.753751e-01 -2.714315e-01 -5.219809e-01 1.126772e-01 3.294168e-01 -3.676095e-01 3.533948e-01 -3.109287e-01
                3.533845e-01 -3.109540e-01 3.294165e-01 -3.676105e-01 -5.219278e-01 1.127177e-01 3.753803e-01 -2.714919e-01
                3.294024e-01 -3.676775e-01 3.533949e-01 -3.109290e-01 3.753806e-01 -2.714911e-01 -5.218967e-01 1.127359e-01
5.461538e-01    -5.266276e-01 1.440979e-01 3.431284e-01 -2.979157e-01 3.127953e-01 -3.429249e-01 2.802261e-01 -4.078503e-01
                3.431285e-01 -2.979156e-01 -5.267089e-01 1.440255e-01 2.802510e-01 -4.077663e-01 3.128102e-01 -3.428958e-01
                3.127952e-01 -3.429257e-01 2.802504e-01 -4.077673e-01 -5.266414e-01 1.440627e-01 3.431330e-01 -2.979918e-01
                2.802264e-01 -4.078506e-01 3.128103e-01 -3.428962e-01 3.431336e-01 -2.979910e-01 -5.265985e-01 1.440808e-01
6.205128e-01    -5.277449e-01 1.792229e-01 3.101955e-01 -3.193518e-01 2.697336e-01 -3.693061e-01 2.270462e-01 -4.420258e-01
                3.101957e-01 -3.193518e-01 -5.278516e-01 1.791428e-01 2.270859e-01 -4.419244e-01 2.697548e-01 -3.692727e-01
                2.697334e-01 -3.693070e-01 2.270851e-01 -4.419255e-01 -5.277695e-01 1.791728e-01 3.101979e-01 -3.194465e-01
                2.270466e-01 -4.420263e-01 2.697548e-01 -3.692732e-01 3.101986e-01 -3.194456e-01 -5.277124e-01 1.791896e-01
6.948718e-01    -5.241854e-01 2.175166e-01 2.775545e-01 -3.360946e-01 2.249272e-01 -3.901937e-01 1.704708e-01 -4.701815e-01
                2.775547e-01 -3.360947e-01 -5.243230e-01 2.174297e-01 1.705310e-01 -4.700618e-01 2.249562e-01 -3.901563e-01
                2.249268e-01 -3.901946e-01 1.705300e-01 -4.700629e-01 -5.242266e-01 2.174482e-01 2.775522e-01 -3.362107e-01
                1.704712e-01 -4.701822e-01 2.249561e-01 -3.901570e-01 2.775532e-01 -3.362099e-01 -5.241526e-01 2.174620e-01
7.692308e-01    -5.149704e-01 2.581680e-01 2.460588e-01 -3.486753e-01 1.789429e-01 -4.057534e-01 1.109295e-01 -4.923318e-01
                2.460589e-01 -3.486755e-01 -5.151454e-01 2.580758e-01 1.110174e-01 -4.921941e-01 1.789816e-01 -4.057129e-01
                1.789425e-01 -4.057543e-01 1.110160e-01 -4.921951e-01 -5.150359e-01 2.580781e-01 2.460483e-01 -3.488161e-01
                1.109299e-01 -4.923327e-01 1.789815e-01 -4.057137e-01 2.460495e-01 -3.488153e-01 -5.149416e-01 2.580866e-01
8.435897e-01    -4.992382e-01 3.001735e-01 2.164275e-01 -3.577736e-01 1.321881e-01 -4.161504e-01 4.867379e-02 -5.084502e-01
                2.164276e-01 -3.577739e-01 -4.994588e-01 3.000783e-01 4.879778e-02 -5.082959e-01 1.322386e-01 -4.161081e-01
                1.321876e-01 -4.161514e-01 4.879616e-02 -5.082968e-01 -4.993385e-01 3.000595e-01 2.164043e-01 -3.579424e-01
                4.867411e-02 -5.084514e-01 1.322383e-01 -4.161091e-01 2.164058e-01 -3.579416e-01 -4.992197e-01 3.000596e-01
9.179487e-01    -4.762497e-01 3.423376e-01 1.892422e-01 -3.642046e-01 8.492966e-02 -4.214818e-01 -1.620225e-02 -5.183895e-01
                1.892422e-01 -3.642050e-01 -4.765260e-01 3.422438e-01 -1.603201e-02 -5.182220e-01 8.499408e-02 -4.214396e-01
                8.492921e-02 -4.214827e-01 -1.603390e-02 -5.182227e-01 -4.763981e-01 3.421986e-01 1.892004e-01 -3.644047e-01
                -1.620205e-02 -5.183909e-01 8.499358e-02 -4.214407e-01 1.892022e-01 -3.644040e-01 -4.762500e-01 3.421858e-01
9.923077e-01    -4.453993e-01 3.832537e-01 1.649388e-01 -3.689232e-01 3.733383e-02 -4.217090e-01 -8.371996e-02 -5.217999e-01
                1.649387e-01 -3.689237e-01 -4.457434e-01 3.831685e-01 -8.349173e-02 -5.216255e-01 3.741433e-02 -4.216694e-01
                3.733339e-02 -4.217099e-01 -8.349388e-02 -5.216260e-01 -4.456128e-01 3.830915e-01 1.648704e-01 -3.691574e-01
                -8.371996e-02 -5.218017e-01 3.741354e-02 -4.216707e-01 1.648725e-01 -3.691568e-01 -4.454294e-01 3.830594e-01
1.066667e+00    -4.062463e-01 4.212635e-01 1.437816e-01 -3.730452e-01 -1.047068e-02 -4.165925e-01 -1.539468e-01 -5.180456e-01
                1.437813e-01 -3.730458e-01 -4.066722e-01 4.211981e-01 -1.536474e-01 -5.178745e-01 -1.037199e-02 -4.165590e-01
                -1.047104e-02 -4.165934e-01 -1.536498e-01 -5.178747e-01 -4.065458e-01 4.210842e-01 1.436764e-01 -3.733157e-01
                -1.539470e-01 -5.180477e-01 -1.037317e-02 -4.165604e-01 1.436789e-01 -3.733152e-01 -4.063204e-01 4.210234e-01
1.141026e+00    -3.585852e-01 4.543997e-01 1.258047e-01 -3.778806e-01 -5.829380e-02 -4.056304e-01 -2.268870e-01 -5.061196e-01
                1.258040e-01 -3.778812e-01 -3.591084e-01 4.543718e-01 -2.265024e-01 -5.059676e-01 -5.817512e-02 -4.056076e-01
                -5.829403e-02 -4.056313e-01 -2.265051e-01 -5.059675e-01 -3.589953e-01 4.542162e-01 1.256499e-01 -3.781879e-01
                -2.268877e-01 -5.061221e-01 -5.817678e-02 -4.056090e-01 1.256529e-01 -3.781876e-01 -3.587209e-01 4.541131e-01
1.215385e+00    -3.025779e-01 4.803280e-01 1.106981e-01 -3.849625e-01 -1.057334e-01 -3.880134e-01 -3.023133e-01 -4.845706e-01
                1.106971e-01 -3.849630e-01 -3.032137e-01 4.803636e-01 -3.018300e-01 -4.844610e-01 -1.055936e-01 -3.880074e-01
                -1.057335e-01 -3.880144e-01 -3.018328e-01 -4.844604e-01 -3.031257e-01 4.801632e-01 1.104780e-01 -3.853044e-01
                -3.023145e-01 -4.845733e-01 -1.055958e-01 -3.880087e-01 1.104815e-01 -3.853044e-01 -3.027961e-01 4.799982e-01
1.289744e+00    -2.389748e-01 4.963209e-01 9.761718e-02 -3.960375e-01 -1.519517e-01 -3.626281e-01 -3.795125e-01 -4.514710e-01
                9.761575e-02 -3.960379e-01 -2.397354e-01 4.964574e-01 -3.789199e-01 -4.514370e-01 -1.517907e-01 -3.626463e-01
                -1.519514e-01 -3.626293e-01 -3.789229e-01 -4.514360e-01 -2.396878e-01 4.962114e-01 9.731314e-02 -3.964075e-01
                -3.795143e-01 -4.514740e-01 -1.517936e-01 -3.626474e-01 9.731732e-02 -3.964080e-01 -2.392997e-01 4.959572e-01
1.364103e+00    -1.694457e-01 4.993326e-01 8.490162e-02 -4.129514e-01 -1.953661e-01 -3.281712e-01 -4.569291e-01 -4.044935e-01
                8.489973e-02 -4.129514e-01 -1.703349e-01 4.996211e-01 -4.562246e-01 -4.045800e-01 -1.951860e-01 -3.282229e-01
                -1.953655e-01 -3.281727e-01 -4.562276e-01 -4.045785e-01 -1.703459e-01 4.993332e-01 8.449259e-02 -4.133366e-01
                -4.569317e-01 -4.044965e-01 -1.951897e-01 -3.282234e-01 8.449748e-02 -4.133378e-01 -1.699031e-01 4.989531e-01
1.438462e+00    -9.699379e-02 4.862908e-01 6.973594e-02 -4.373167e-01 -2.332883e-01 -2.834864e-01 -5.317293e-01 -3.412066e-01
                6.973362e-02 -4.373161e-01 -9.799893e-02 4.867964e-01 -5.309251e-01 -3.414709e-01 -2.330943e-01 -2.835822e-01
                -2.332873e-01 -2.834884e-01 -5.309281e-01 -3.414686e-01 -9.808909e-02 4.864771e-01 6.920053e-02 -4.376949e-01
                -5.317328e-01 -3.412096e-01 -2.330987e-01 -2.835819e-01 6.920614e-02 -4.376972e-01 -9.760844e-02 4.859248e-01
1.512821e+00    -2.632574e-02 4.547508e-01 4.789450e-02 -4.698248e-01 -2.616510e-01 -2.282579e-01 -5.994155e-01 -2.597367e-01
                4.789188e-02 -4.698233e-01 -2.740615e-02 4.555487e-01 -5.985489e-01 -2.602442e-01 -2.614530e-01 -2.284091e-01
                -2.616497e-01 -2.282608e-01 -5.985517e-01 -2.602413e-01 -2.759560e-02 4.552181e-01 4.721479e-02 -4.701625e-01
                -5.994200e-01 -2.597394e-01 -2.614581e-01 -2.284075e-01 4.722102e-02 -4.701663e-01 -2.711590e-02 4.544407e-01
1.587179e+00    3.614492e-02 4.039862e-01 1.390188e-02 -5.091479e-01 -2.751561e-01 -1.641163e-01 -6.538110e-01 -1.598650e-01
                1.389925e-02 -5.091452e-01 3.506949e-02 4.051497e-01 -6.529547e-01 -1.606792e-01 -2.749701e-01 -1.643324e-01
                -2.751547e-01 -1.641203e-01 -6.529571e-01 -1.606756e-01 3.476583e-02 4.048391e-01 1.306961e-02 -5.093997e-01
                -6.538166e-01 -1.598672e-01 -2.749754e-01 -1.643290e-01 1.307613e-02 -5.094055e-01 3.517475e-02 4.037866e-01
1.661538e+00    8.313341e-02 3.362761e-01 -3.790620e-02 -5.506996e-01 -2.683255e-01 -9.588315e-02 -6.878865e-01 -4.432169e-02
                -3.790837e-02 -5.506955e-01 8.218896e-02 3.378540e-01 -6.871541e-01 -4.548345e-02 -2.681738e-01 -9.616892e-02
                -2.683244e-01 -9.588858e-02 -6.871560e-01 -4.547921e-02 8.176838e-02 3.376048e-01 -3.888215e-02 -5.508116e-01
                -6.878931e-01 -4.432305e-02 -2.681786e-01 -9.616342e-02 -3.887593e-02 -5.508198e-01 8.200048e-02 3.362480e-01
1.735897e+00    1.084238e-01 2.575981e-01 -1.111580e-01 -5.860976e-01 -2.377177e-01 -3.211366e-02 -6.956922e-01 8.051575e-02
                -1.111591e-01 -5.860922e-01 1.077731e-01 2.595850e-01 -6.952307e-01 7.901469e-02 -2.376271e-01 -3.246514e-02
                -2.377175e-01 -3.212069e-02 -6.952318e-01 7.901947e-02 1.072521e-01 2.594427e-01 -1.122458e-01 -5.860162e-01
                -6.956996e-01 8.051557e-02 -2.376306e-01 -3.245743e-02 -1.122408e-01 -5.860271e-01 1.071717e-01 2.577973e-01
1.810256e+00    1.092812e-01 1.766716e-01 -2.047203e-01 -6.044571e-01 -1.846456e-01 1.619281e-02 -6.747617e-01 2.055725e-01
                -2.047195e-01 -6.044506e-01 1.090935e-01 1.789839e-01 -6.747243e-01 2.038122e-01 -1.846431e-01 1.579129e-02
                -1.846470e-01 1.618431e-02 -6.747245e-01 2.038174e-01 1.085104e-01 1.789866e-01 -2.058655e-01 -6.041417e-01
                -6.747697e-01 2.055737e-01 -1.846442e-01 1.580085e-02 -2.058628e-01 -6.041552e-01 1.079761e-01 1.771340e-01
1.884615e+00    8.765824e-02 1.021901e-01 -3.112432e-01 -5.957668e-01 -1.166223e-01 3.896336e-02 -6.273122e-01 3.218343e-01
                -3.112402e-01 -5.957600e-01 8.806378e-02 1.046638e-01 -6.278165e-01 3.199699e-01 -1.167291e-01 3.853912e-02
                -1.166260e-01 3.895389e-02 -6.278157e-01 3.199752e-01 8.747373e-02 1.048301e-01 -3.123781e-01 -5.952009e-01
                -6.273204e-01 3.218372e-01 -1.167270e-01 3.854965e-02 -3.123788e-01 -5.952161e-01 8.637593e-02 1.029217e-01
1.958974e+00    4.888292e-02 3.989054e-02 -4.184962e-01 -5.547537e-01 -4.601920e-02 3.090923e-02 -5.589290e-01 4.232666e-01
                -4.184906e-01 -5.547474e-01 4.993180e-02 4.230893e-02 -5.600187e-01 4.215037e-01 -4.624544e-02 3.049772e-02
                -4.602568e-02 3.089960e-02 -5.600169e-01 4.215090e-01 4.939393e-02 4.263086e-02 -4.195535e-01 -5.539476e-01
                -5.589372e-01 4.232712e-01 -4.623960e-02 3.050793e-02 -4.195583e-01 -5.539635e-01 4.769159e-02 4.086758e-02
2.033333e+00    -1.336892e-03 -8.301977e-03 -5.129792e-01 -4.828985e-01 1.355026e-02 -6.466609e-03 -4.755742e-01 5.076585e-01
                -5.129712e-01 -4.828938e-01 3.078827e-04 -6.160877e-03 -4.772000e-01 5.062108e-01 1.320798e-02 -6.827339e-03
                1.354094e-02 -6.475432e-03 -4.771972e-01 5.062158e-01 -1.287776e-04 -5.716273e-03 -5.139049e-01 -4.818836e-01
                -4.755820e-01 5.076648e-01 1.321741e-02 -6.818915e-03 -5.139140e-01 -4.818987e-01 -2.388444e-03 -7.122594e-03
2.107692e+00    -5.916774e-02 -4.263962e-02 -5.837015e-01 -3.877628e-01 5.100991e-02 -6.554890e-02 -3.813386e-01 5.749818e-01
                -5.836918e-01 -3.877604e-01 -5.706081e-02 -4.095615e-02 -3.833660e-01 5.740258e-01 5.056817e-02 -6.582372e-02
                5.099811e-02 -6.555598e-02 -3.833623e-01 5.740303e-01 -5.736752e-02 -4.043766e-02 -5.844599e-01 -3.865805e-01
                -3.813456e-01 5.749897e-01 5.058046e-02 -6.581839e-02 -5.844729e-01 -3.865934e-01 -6.005272e-02 -4.130716e-02
2.182051e+00    -1.226499e-01 -6.319394e-02 -6.245617e-01 -2.806085e-01 6.020187e-02 -1.349929e-01 -2.784489e-01 6.250308e-01
                -6.245512e-01 -2.806090e-01 -1.202691e-01 -6.207469e-02 -2.806861e-01 6.246725e-01 5.968818e-02 -1.351541e-01
                6.018826e-02 -1.349975e-01 -2.806815e-01 6.246764e-01 -1.204407e-01 -6.153509e-02 -6.251335e-01 -2.793009e-01
                -2.784549e-01 6.250404e-01 5.970209e-02 -1.351528e-01 -6.251494e-01 -2.793104e-01 -1.233589e-01 -6.175447e-02
2.256410e+00    -1.900408e-01 -6.876656e-02 -6.351129e-01 -1.735480e-01 4.065443e-02 -2.025763e-01 -1.689296e-01 6.563325e-01
                -6.351025e-01 -1.735515e-01 -1.875883e-01 -6.823298e-02 -1.711656e-01 6.565923e-01 4.010367e-02 -2.026069e-01
                4.063991e-02 -2.025780e-01 -1.711603e-01 6.565954e-01 -1.876407e-01 -6.771830e-02 -6.354901e-01 -1.721527e-01
                -1.689342e-01 6.563435e-01 4.011773e-02 -2.026099e-01 -6.355076e-01 -1.721582e-01 -1.905751e-01 -6.725946e-02
2.330769e+00    -2.582289e-01 -5.762894e-02 -6.199676e-01 -7.688038e-02 -3.007619e-03 -2.578641e-01 -5.619232e-02 6.668854e-01
                -6.199584e-01 -7.688661e-02 -2.558832e-01 -5.762638e-02 -5.823653e-02 6.677036e-01 -3.557875e-03 -2.577598e-01
                -3.022144e-03 -2.578630e-01 -5.823058e-02 6.677057e-01 -2.558462e-01 -5.716872e-02 -6.201491e-01 -7.542916e-02
                -5.619513e-02 6.668977e-01 -3.545082e-03 -2.577668e-01 -6.201669e-01 -7.543068e-02 -2.585960e-01 -5.608733e-02
2.405128e+00    -3.225066e-01 -2.915712e-02 -5.870401e-01 2.872379e-03 -6.281571e-02 -2.941759e-01 5.473231e-02 6.557937e-01
                -5.870327e-01 2.864030e-03 -3.203961e-01 -2.957941e-02 5.302064e-02 6.570526e-01 -6.333015e-02 -2.939442e-01
                -6.282948e-02 -2.941724e-01 5.302700e-02 6.570536e-01 -3.203051e-01 -2.919439e-02 -5.870274e-01 4.352663e-03
                5.473154e-02 6.558068e-01 -6.331976e-02 -2.939546e-01 -5.870443e-01 4.354719e-03 -3.227186e-01 -2.760922e-02
2.479487e+00    -3.777077e-01 1.504186e-02 -5.451189e-01 6.365197e-02 -1.298776e-01 -3.092766e-01 1.583257e-01 6.243923e-01
                -5.451137e-01 6.364223e-02 -3.759011e-01 1.432148e-02 1.570247e-01 6.259482e-01 -1.303272e-01 -3.089345e-01
                -1.298901e-01 -3.092712e-01 1.570312e-01 6.259481e-01 -3.757897e-01 1.463311e-02 -5.449154e-01 6.513794e-02
                1.583271e-01 6.244059e-01 -1.303199e-01 -3.089472e-01 -5.449306e-01 6.514283e-02 -3.777804e-01 1.657225e-02
2.553846e+00    -4.197201e-01 7.123270e-02 -5.016933e-01 1.071310e-01 -1.965450e-01 -3.046487e-01 2.500868e-01 5.761453e-01
                -5.016904e-01 1.071206e-01 -4.182340e-01 7.033472e-02 2.492164e-01 5.778575e-01 -1.969093e-01 -3.042187e-01
                -1.965561e-01 -3.046420e-01 2.492230e-01 5.778562e-01 -4.181293e-01 7.058271e-02 -5.013031e-01 1.086017e-01
                2.500905e-01 5.761589e-01 -1.969054e-01 -3.042327e-01 -5.013162e-01 1.086086e-01 -4.196731e-01 7.272673e-02
2.628205e+00    -4.463969e-01 1.345697e-01 -4.617881e-01 1.371396e-01 -2.575719e-01 -2.839252e-01 3.274335e-01 5.156307e-01
                -4.617875e-01 1.371291e-01 -4.452112e-01 1.335921e-01 3.269711e-01 5.173806e-01 -2.578385e-01 -2.834312e-01
                -2.575815e-01 -2.839176e-01 3.269774e-01 5.173783e-01 -4.451319e-01 1.337919e-01 -4.612160e-01 1.385757e-01
                3.274395e-01 5.156440e-01 -2.578380e-01 -2.834456e-01 -4.612270e-01 1.385837e-01 -4.462524e-01 1.360143e-01
2.702564e+00    -4.575864e-01 2.002545e-01 -4.278935e-01 1.580981e-01 -3.101759e-01 -2.513294e-01 3.897227e-01 4.473886e-01
                -4.278948e-01 1.580880e-01 -4.566611e-01 1.992677e-01 3.896208e-01 4.490872e-01 -3.103392e-01 -2.507946e-01
                -3.101841e-01 -2.513215e-01 3.896267e-01 4.490838e-01 -4.566187e-01 1.994365e-01 -4.271447e-01 1.594815e-01
                3.897308e-01 4.474011e-01 -3.103419e-01 -2.508085e-01 -4.271538e-01 1.594901e-01 -4.573678e-01 2.016430e-01
2.776923e+00    -4.545998e-01 2.642987e-01 -4.005512e-01 1.739813e-01 -3.534426e-01 -2.106498e-01 4.377077e-01 3.751675e-01
                -4.005542e-01 1.739719e-01 -4.538889e-01 2.633474e-01 4.379089e-01 3.767545e-01 -3.535020e-01 -2.100947e-01
                -3.534496e-01 -2.106418e-01 4.379143e-01 3.767502e-01 -4.538887e-01 2.635020e-01 -3.996315e-01 1.752949e-01
                4.377178e-01 3.751791e-01 -3.535074e-01 -2.101077e-01 -3.996389e-01 1.753036e-01 -4.543302e-01 2.656307e-01
2.851282e+00    -4.395526e-01 3.237952e-01 -3.790969e-01 1.878754e-01 -3.875730e-01 -1.648102e-01 4.728691e-01 3.016663e-01
                -3.791012e-01 1.878669e-01 -4.390120e-01 3.229043e-01 4.733159e-01 3.031045e-01 -3.875308e-01 -1.642527e-01
                -3.875790e-01 -1.648023e-01 4.733207e-01 3.030994e-01 -4.390554e-01 3.230600e-01 -3.780123e-01 1.891025e-01
                4.728810e-01 3.016766e-01 -3.875386e-01 -1.642643e-01 -3.780184e-01 1.891110e-01 -4.392535e-01 3.250759e-01
2.925641e+00    -4.148415e-01 3.768567e-01 -3.622657e-01 2.019358e-01 -4.132672e-01 -1.158474e-01 4.968818e-01 2.286130e-01
                -3.622711e-01 2.019284e-01 -4.144331e-01 3.760374e-01 4.975216e-01 2.298823e-01 -4.131278e-01 -1.153027e-01
                -4.132726e-01 -1.158397e-01 4.975256e-01 2.298764e-01 -4.145187e-01 3.762078e-01 -3.610228e-01 2.030598e-01
                4.968954e-01 2.286219e-01 -4.131375e-01 -1.153127e-01 -3.610279e-01 2.030680e-01 -4.145314e-01 3.780967e-01
3.000000e+00    -3.828242e-01 4.224131e-01 -3.485833e-01 2.175309e-01 -4.313258e-01 -6.507905e-02 5.112879e-01 1.569914e-01
                -3.485896e-01 2.175245e-01 -3.825174e-01 4.216681e-01 5.120748e-01 1.580832e-01 -4.310942e-01 -6.456054e-02
                -4.313306e-01 -6.507156e-02 5.120780e-01 1.580766e-01 -3.826417e-01 4.218654e-01 -3.471893e-01 2.185349e-01
                5.113030e-01 1.569987e-01 -4.311055e-01 -6.456862e-02 -3.471938e-01 2.185429e-01 -3.825178e-01 4.236274e-01
