! Generated by EMerge - 4-port S-parameters
! File generated: 2026-02-18 06:08 
! --- Coupler_15dB ---
! Substrate: RO4003C
! h = 0.508 mm
! Design parameters:
! W0 = 1.08 mm
! L_coupled = 22.75 mm
! W_coupled = 1.0 mm
! S_coupled = 0.36 mm
! L_feed = 10.0 mm
! L_trans = 1.0 mm
! Air box height = 10 mm
! Run time = 0.91 min
# GHZ S RI R 50
1.000000e-01    1.477944e-02 1.454398e-02 9.737808e-01 -1.530013e-01 2.203259e-03 1.362321e-02 -7.363185e-04 -3.277204e-03
                9.737807e-01 -1.530015e-01 1.479778e-02 1.454182e-02 -7.380429e-04 -3.276775e-03 2.207081e-03 1.362256e-02
                2.203092e-03 1.362092e-02 -7.383645e-04 -3.279036e-03 1.479597e-02 1.458118e-02 9.737772e-01 -1.530198e-01
                -7.366418e-04 -3.279464e-03 2.206594e-03 1.362035e-02 9.737780e-01 -1.530162e-01 1.479380e-02 1.457701e-02
2.256410e-01    2.408265e-02 3.047709e-02 9.244304e-01 -3.389997e-01 1.090697e-02 2.895892e-02 -3.542339e-03 -6.571553e-03
                9.244300e-01 -3.389999e-01 2.417038e-02 3.044611e-02 -3.550038e-03 -6.566922e-03 1.092524e-02 2.895183e-02
                1.090612e-02 2.895378e-02 -3.551654e-03 -6.571839e-03 2.416204e-02 3.053905e-02 9.244131e-01 -3.390376e-01
                -3.543967e-03 -6.576472e-03 1.092285e-02 2.894730e-02 9.244165e-01 -3.390300e-01 2.415049e-02 3.053333e-02
3.512821e-01    3.891520e-02 4.144993e-02 8.396643e-01 -5.110764e-01 2.528283e-02 4.040858e-02 -7.840716e-03 -8.162342e-03
                8.396633e-01 -5.110763e-01 3.910431e-02 4.133548e-02 -7.855084e-03 -8.146321e-03 2.532228e-02 4.038311e-02
                2.528070e-02 4.040061e-02 -7.858946e-03 -8.153465e-03 3.908855e-02 4.149032e-02 8.396256e-01 -5.111263e-01
                -7.844617e-03 -8.169492e-03 2.531684e-02 4.037734e-02 8.396332e-01 -5.111160e-01 3.906205e-02 4.149154e-02
4.769231e-01    5.686551e-02 4.573616e-02 7.233413e-01 -6.625521e-01 4.377965e-02 4.637611e-02 -1.270216e-02 -7.586966e-03
                7.233398e-01 -6.625515e-01 5.715662e-02 4.546779e-02 -1.271857e-02 -7.551563e-03 4.384059e-02 4.631654e-02
                4.377561e-02 4.636543e-02 -1.272554e-02 -7.560254e-03 5.713845e-02 4.569413e-02 7.232774e-01 -6.626047e-01
                -1.270923e-02 -7.595658e-03 4.383143e-02 4.631098e-02 7.232905e-01 -6.625933e-01 5.709445e-02 4.571547e-02
6.025641e-01    7.507991e-02 4.271426e-02 5.805059e-01 -7.878851e-01 6.448238e-02 4.586441e-02 -1.712124e-02 -4.861315e-03
                5.805040e-01 -7.878836e-01 7.543748e-02 4.222145e-02 -1.712964e-02 -4.800882e-03 6.455755e-02 4.575414e-02
                6.447569e-02 4.585128e-02 -1.714043e-02 -4.810190e-03 7.542813e-02 4.252656e-02 5.804168e-01 -7.879312e-01
                -1.713221e-02 -4.870585e-03 6.454459e-02 4.575048e-02 5.804359e-01 -7.879208e-01 7.536894e-02 4.258567e-02
7.282051e-01    9.074182e-02 3.291912e-02 4.170175e-01 -8.828118e-01 8.533835e-02 3.851133e-02 -2.024703e-02 -4.404685e-04
                4.170156e-01 -8.828089e-01 9.109648e-02 3.214756e-02 -2.023352e-02 -3.545701e-04 8.541306e-02 3.833584e-02
                8.532826e-02 3.849616e-02 -2.024862e-02 -3.633258e-04 9.111185e-02 3.253280e-02 4.169061e-01 -8.828437e-01
                -2.026241e-02 -4.490911e-04 8.539685e-02 3.833578e-02 4.169312e-01 -8.828364e-01 9.104678e-02 3.265094e-02
8.538462e-01    1.015085e-01 1.790146e-02 2.392223e-01 -9.443615e-01 1.043484e-01 2.454734e-02 -2.155679e-02 4.920265e-03
                2.392208e-01 -9.443572e-01 1.017660e-01 1.682711e-02 -2.150637e-02 5.025002e-03 1.044015e-01 2.429686e-02
                1.043342e-01 2.453081e-02 -2.152596e-02 5.018160e-03 1.018232e-01 1.728526e-02 2.390928e-01 -9.443738e-01
                -2.157675e-02 4.913731e-03 1.043833e-01 2.430189e-02 2.391231e-01 -9.443717e-01 1.017711e-01 1.748565e-02
9.794872e-01    1.058399e-01 -5.740526e-05 5.370185e-02 -9.708007e-01 1.197044e-01 4.713140e-03 -2.093839e-02 1.035943e-02
                5.370145e-02 -9.707949e-01 1.058952e-01 -1.418976e-03 -2.083844e-02 1.046891e-02 1.197102e-01 4.384656e-03
                1.196855e-01 4.696134e-03 -2.086232e-02 1.046546e-02 1.060079e-01 -9.046341e-04 5.355838e-02 -9.707896e-01
                -2.096266e-02 1.035654e-02 1.196917e-01 4.395845e-03 5.359259e-02 -9.707947e-01 1.059993e-01 -5.996444e-04
1.105128e+00    1.031858e-01 -1.831558e-02 -1.329023e-01 -9.615608e-01 1.298811e-01 -1.983035e-02 -1.867396e-02 1.510946e-02
                -1.329010e-01 -9.615537e-01 1.029399e-01 -1.990598e-02 -1.851767e-02 1.520335e-02 1.298114e-01 -2.023160e-02
                1.298572e-01 -1.984673e-02 -1.854520e-02 1.520478e-02 1.031128e-01 -1.936026e-02 -1.330562e-01 -9.615233e-01
                -1.870180e-02 1.511178e-02 1.297947e-01 -2.021377e-02 -1.330200e-01 -9.615369e-01 1.031919e-01 -1.893327e-02
1.230769e+00    9.402111e-02 -3.426621e-02 -3.140164e-01 -9.171887e-01 1.337020e-01 -4.758383e-02 -1.533798e-02 1.866056e-02
                -3.140130e-01 -9.171808e-01 9.339862e-02 -3.598797e-02 -1.512710e-02 1.871489e-02 1.335284e-01 -4.804349e-02
                1.336729e-01 -4.759835e-02 -1.515717e-02 1.872256e-02 9.362331e-02 -3.543979e-02 -3.141777e-01 -9.171212e-01
                -1.536815e-02 1.866946e-02 1.335161e-01 -4.801927e-02 -3.141417e-01 -9.171443e-01 9.384827e-02 -3.488373e-02
1.356410e+00    7.973987e-02 -4.570725e-02 -4.832541e-01 -8.393302e-01 1.303995e-01 -7.678707e-02 -1.163624e-02 2.085771e-02
                -4.832481e-01 -8.393220e-01 7.870447e-02 -4.743425e-02 -1.138247e-02 2.084866e-02 1.300969e-01 -7.728142e-02
                1.303656e-01 -7.679849e-02 -1.141355e-02 2.086364e-02 7.895576e-02 -4.691039e-02 -4.834187e-01 -8.392278e-01
                -1.166702e-02 2.087423e-02 1.300912e-01 -7.725193e-02 -4.833855e-01 -8.392607e-01 7.939761e-02 -4.623483e-02
1.482051e+00    6.242791e-02 -5.114173e-02 -6.345614e-01 -7.307326e-01 1.196777e-01 -1.055077e-01 -8.220097e-03 2.191349e-02
                -6.345526e-01 -7.307249e-01 6.099288e-02 -5.273532e-02 -7.944990e-03 2.182153e-02 1.192266e-01 -1.060043e-01
                1.196396e-01 -1.055149e-01 -7.975189e-03 2.184448e-02 6.122893e-02 -5.225260e-02 -6.347229e-01 -7.305893e-01
                -8.249444e-03 2.193815e-02 1.192297e-01 -1.059714e-01 -6.346951e-01 -7.306317e-01 6.196773e-02 -5.149044e-02
1.607692e+00    4.454613e-02 -4.997318e-02 -7.624048e-01 -5.952359e-01 1.017673e-01 -1.317577e-01 -5.515241e-03 2.233343e-02
                -7.623930e-01 -5.952295e-01 4.277861e-02 -5.130213e-02 -5.248203e-03 2.214735e-02 1.011574e-01 -1.322170e-01
                1.017259e-01 -1.317597e-01 -5.275423e-03 2.217840e-02 4.294386e-02 -5.085911e-02 -7.625528e-01 -5.950463e-01
                -5.540941e-03 2.236619e-02 1.011708e-01 -1.321835e-01 -7.625330e-01 -5.950972e-01 4.406220e-02 -5.007271e-02
1.733333e+00    2.856622e-02 -4.257132e-02 -8.619967e-01 -4.377184e-01 7.745179e-02 -1.536440e-01 -3.603433e-03 2.276776e-02
                -8.619823e-01 -4.377141e-01 2.658353e-02 -4.353292e-02 -3.378187e-03 2.248764e-02 7.668437e-02 -1.540222e-01
                7.740829e-02 -1.536403e-01 -3.400285e-03 2.252633e-02 2.661530e-02 -4.310260e-02 -8.621170e-01 -4.374800e-01
                -3.623297e-03 2.280793e-02 7.670869e-02 -1.539915e-01 -8.621074e-01 -4.375377e-01 2.818880e-02 -4.238822e-02
1.858974e+00    1.660858e-02 -3.019804e-02 -9.295354e-01 -2.639692e-01 4.804030e-02 -1.695403e-01 -2.188127e-03 2.382045e-02
                -9.295187e-01 -2.639679e-01 1.456630e-02 -3.073737e-02 -2.038094e-03 2.345900e-02 4.712957e-02 -1.697935e-01
                4.799585e-02 -1.695306e-01 -2.053065e-03 2.350432e-02 1.440470e-02 -3.026219e-02 -9.296106e-01 -2.636846e-01
                -2.200197e-03 2.386673e-02 4.716435e-02 -1.697692e-01 -9.296131e-01 -2.637470e-01 1.649005e-02 -2.975141e-02
1.984615e+00    1.013462e-02 -1.480282e-02 -9.624205e-01 -8.047837e-02 1.527114e-02 -1.782521e-01 -6.574525e-04 2.586052e-02
                -9.624021e-01 -8.048057e-02 8.207556e-03 -1.492693e-02 -6.108294e-04 2.544251e-02 1.424421e-02 -1.783409e-01
                1.522683e-02 -1.782366e-01 -6.169623e-04 2.549292e-02 7.807702e-03 -1.431735e-02 -9.624324e-01 -8.015739e-02
                -6.601594e-04 2.591117e-02 1.428775e-02 -1.783265e-01 -9.624485e-01 -8.022172e-02 1.042925e-02 -1.417451e-02
2.110256e+00    9.740110e-03 1.283151e-03 -9.594074e-01 1.058437e-01 -1.884782e-02 -1.791394e-01 1.766153e-03 2.888369e-02
                -9.593882e-01 1.058374e-01 8.098123e-03 1.498628e-03 1.690730e-03 2.844335e-02 -1.995316e-02 -1.790330e-01
                -1.889113e-02 -1.791185e-01 1.694737e-03 2.849696e-02 7.443509e-03 2.360933e-03 -9.593408e-01 1.061833e-01
                1.773892e-03 2.893662e-02 -1.990378e-02 -1.790316e-01 -9.593714e-01 1.061200e-01 1.057969e-02 1.946287e-03
2.235897e+00    1.508102e-02 1.570750e-02 -9.206732e-01 2.879871e-01 -5.223640e-02 -1.721671e-01 5.824240e-03 3.246168e-02
                -9.206540e-01 2.879765e-01 1.386296e-02 1.612122e-02 5.620674e-03 3.203864e-02 -5.337550e-02 -1.718464e-01
                -5.227813e-02 -1.721413e-01 5.635665e-03 3.209331e-02 1.297834e-02 1.737505e-02 -9.205193e-01 2.883212e-01
                5.843003e-03 3.251467e-02 -5.332424e-02 -1.718602e-01 -9.205645e-01 2.882622e-01 1.654990e-02 1.620085e-02
2.361538e+00    2.494275e-02 2.645664e-02 -8.477839e-01 4.591659e-01 -8.293728e-02 -1.578742e-01 1.201789e-02 3.579400e-02
                -8.477656e-01 4.591508e-01 2.423206e-02 2.687410e-02 1.169377e-02 3.542839e-02 -8.406341e-02 -1.573329e-01
                -8.297717e-02 -1.578440e-01 1.172014e-02 3.548187e-02 2.319395e-02 2.866531e-02 -8.475432e-01 4.594666e-01
                1.204780e-02 3.584481e-02 -8.401500e-02 -1.573628e-01 -8.476024e-01 4.594152e-01 2.705577e-02 2.653430e-02
2.487179e+00    3.744016e-02 3.216009e-02 -7.435747e-01 6.131028e-01 -1.092717e-01 -1.372766e-01 2.044965e-02 3.784976e-02
                -7.435582e-01 6.130832e-01 3.724578e-02 3.235497e-02 2.002545e-02 3.757743e-02 -1.103405e-01 -1.365200e-01
                -1.093097e-01 -1.372424e-01 2.006318e-02 3.762746e-02 3.618869e-02 3.481861e-02 -7.432585e-01 6.133429e-01
                2.049043e-02 3.789618e-02 -1.103000e-01 -1.365655e-01 -7.433305e-01 6.133024e-01 4.012700e-02 3.155923e-02
2.612821e+00    5.031597e-02 3.229489e-02 -6.119715e-01 7.442506e-01 -1.299332e-01 -1.117345e-01 3.074667e-02 3.756585e-02
                -6.119578e-01 7.442266e-01 5.056144e-02 3.203691e-02 3.025339e-02 3.741435e-02 -1.309059e-01 -1.107763e-01
                -1.299695e-01 -1.116964e-01 3.030210e-02 3.745865e-02 4.967812e-02 3.527611e-02 -6.116009e-01 7.444081e-01
                3.079774e-02 3.760577e-02 -1.308782e-01 -1.108351e-01 -6.116838e-01 7.443815e-01 5.341435e-02 3.076525e-02
2.738462e+00    6.129190e-02 2.726270e-02 -4.577885e-01 8.479396e-01 -1.440208e-01 -8.282118e-02 4.207838e-02 3.405806e-02
                -4.577785e-01 8.479116e-01 6.181482e-02 2.634877e-02 4.155403e-02 3.404385e-02 -1.448649e-01 -8.167990e-02
                -1.440554e-01 -8.277908e-02 4.161298e-02 3.408016e-02 6.134899e-02 3.041248e-02 -4.573918e-01 8.480016e-01
                4.213888e-02 3.408936e-02 -1.448543e-01 -8.174821e-02 -4.574829e-01 8.479918e-01 6.455099e-02 2.459790e-02
2.864103e+00    6.842227e-02 1.833149e-02 -2.865357e-01 9.204630e-01 -1.510298e-01 -5.221977e-02 5.326125e-02 2.680419e-02
                -2.865303e-01 9.204315e-01 6.898488e-02 1.661655e-02 5.274683e-02 2.693133e-02 -1.517183e-01 -5.091514e-02
                -1.510628e-01 -5.217318e-02 5.281491e-02 2.695737e-02 6.921571e-02 2.147865e-02 -2.861444e-01 9.204283e-01
                5.332997e-02 2.682477e-02 -1.517278e-01 -5.098790e-02 -2.862402e-01 9.204375e-01 7.151660e-02 1.439888e-02
2.989744e+00    7.040273e-02 7.451622e-03 -1.042574e-01 9.591251e-01 -1.508321e-01 -2.165535e-02 6.292923e-02 1.576852e-02
                -1.042574e-01 9.590906e-01 7.071322e-02 4.875269e-03 6.246480e-02 1.602867e-02 -1.513398e-01 -2.020695e-02
                -1.508632e-01 -2.160359e-02 6.254043e-02 1.604218e-02 7.193168e-02 1.041810e-02 -1.039005e-01 9.590044e-01
                6.300453e-02 1.577624e-02 -1.513710e-01 -2.027801e-02 -1.039972e-01 9.590342e-01 7.295559e-02 2.217282e-03
3.115385e+00    6.679404e-02 -3.030566e-03 8.259924e-02 9.622837e-01 -1.436686e-01 7.149172e-03 6.974147e-02 1.448507e-03
                8.259298e-02 9.622470e-01 6.653716e-02 -6.425181e-03 6.936261e-02 1.822089e-03 -1.439695e-01 8.721043e-03
                -1.436970e-01 7.206856e-03 6.944363e-02 1.820905e-03 6.901528e-02 -4.196830e-04 8.289959e-02 9.620980e-01
                6.982114e-02 1.441305e-03 -1.440220e-01 8.658330e-03 8.280646e-02 9.621494e-01 6.840902e-02 -9.484350e-03
3.241026e+00    5.813012e-02 -1.072837e-02 2.673007e-01 9.294131e-01 -1.301670e-01 3.251889e-02 7.259596e-02 -1.516487e-02
                2.672874e-01 9.293751e-01 5.700434e-02 -1.478664e-02 7.233087e-02 -1.470665e-02 -1.302320e-01 3.418991e-02
                -1.301915e-01 3.258317e-02 7.241442e-02 -1.472443e-02 6.095986e-02 -8.635241e-03 2.675335e-01 9.291901e-01
                7.267707e-02 -1.518881e-02 -1.303034e-01 3.414211e-02 2.674488e-01 9.292629e-01 5.842839e-02 -1.819572e-02
3.366667e+00    4.588887e-02 -1.359841e-02 4.429633e-01 8.611967e-01 -1.113744e-01 5.290207e-02 7.081562e-02 -3.271250e-02
                4.429421e-01 8.611587e-01 4.364634e-02 -1.805976e-02 7.068300e-02 -3.220506e-02 -1.111722e-01 5.463926e-02
                -1.113935e-01 5.297334e-02 7.076551e-02 -3.224080e-02 4.920648e-02 -1.216324e-02 4.431307e-01 8.609650e-01
                7.089448e-02 -3.275444e-02 -1.112577e-01 5.461214e-02 4.430594e-01 8.610581e-01 4.454929e-02 -2.175454e-02
3.492308e+00    3.231571e-02 -1.030275e-02 6.027433e-01 7.596368e-01 -8.877715e-02 6.699132e-02 6.427173e-02 -4.966557e-02
                6.027136e-01 7.596002e-01 2.880018e-02 -1.482077e-02 6.427946e-02 -4.914800e-02 -8.827785e-02 6.874876e-02
                -8.878872e-02 6.706943e-02 6.435676e-02 -4.920225e-02 3.596950e-02 -9.635417e-03 6.028600e-01 7.594199e-01
                6.434397e-02 -4.972588e-02 -8.837100e-02 6.874658e-02 6.028071e-01 7.595309e-01 2.911390e-02 -1.872214e-02
3.617949e+00    2.010641e-02 -4.924798e-04 7.401073e-01 6.281436e-01 -6.426972e-02 7.388531e-02 5.341227e-02 -6.456800e-02
                7.400686e-01 6.281101e-01 1.528347e-02 -4.669082e-03 5.355698e-02 -6.407997e-02 -6.345189e-02 7.560234e-02
                -6.427166e-02 7.396943e-02 5.362447e-02 -6.415213e-02 2.392159e-02 -6.654156e-04 7.401974e-01 6.279545e-01
                5.347312e-02 -6.464582e-02 -6.354482e-02 7.562715e-02 7.401676e-01 6.280798e-01 1.494805e-02 -8.680676e-03
3.743590e+00    1.197995e-02 1.504676e-02 8.491833e-01 4.715514e-01 -4.004230e-02 7.325956e-02 3.917593e-02 -7.627566e-02
                8.491355e-01 4.715230e-01 5.954106e-03 1.161593e-02 3.944326e-02 -7.585433e-02 -3.890072e-02 7.486293e-02
                -4.003257e-02 7.334808e-02 3.949635e-02 -7.594247e-02 1.576849e-02 1.400350e-02 8.492745e-01 4.713883e-01
                3.922064e-02 -7.636866e-02 -3.898502e-02 7.491413e-02 8.492715e-01 4.715230e-01 4.923032e-03 7.609444e-03
3.869231e+00    1.020206e-02 3.443610e-02 9.251579e-01 2.960071e-01 -1.837861e-02 6.549530e-02 2.279847e-02 -8.413337e-02
                9.251014e-01 2.959861e-01 3.216007e-03 3.211054e-02 2.316417e-02 -8.381059e-02 -1.693092e-02 6.690566e-02
                -1.835564e-02 6.558587e-02 2.319875e-02 -8.391139e-02 1.377385e-02 3.253686e-02 9.252737e-01 2.958529e-01
                2.282291e-02 -8.423772e-02 -1.699857e-02 6.697986e-02 9.253006e-01 2.959911e-01 1.463214e-03 2.824299e-02
3.994872e+00    1.614650e-02 5.495136e-02 9.646546e-01 1.087025e-01 -1.391441e-03 5.171502e-02 5.552642e-03 -8.803711e-02
                9.645901e-01 1.086915e-01 8.560628e-03 5.399618e-02 5.984280e-03 -8.783690e-02 3.190088e-04 5.285662e-02
                -1.354394e-03 5.180476e-02 5.997231e-03 -8.794587e-02 1.932059e-02 5.225345e-02 9.648068e-01 1.085278e-01
                5.553807e-03 -8.814770e-02 2.746131e-04 5.294785e-02 9.648649e-01 1.086625e-01 6.088270e-03 5.041634e-02
4.120513e+00    2.999023e-02 7.345112e-02 9.660105e-01 -8.253881e-02 9.247940e-03 3.369665e-02 -1.150917e-02 -8.835672e-02
                9.659395e-01 -8.253752e-02 2.224378e-02 7.399741e-02 -1.104995e-02 -8.829333e-02 1.115420e-02 3.450764e-02
                9.298983e-03 3.378250e-02 -1.106041e-02 -8.840520e-02 3.260480e-02 7.005030e-02 9.661935e-01 -8.276957e-02
                -1.153269e-02 -8.846765e-02 1.113742e-02 3.460801e-02 9.662826e-01 -8.264563e-02 1.908914e-02 7.086207e-02
4.246154e+00    5.061932e-02 8.690943e-02 9.293863e-01 -2.697608e-01 1.252135e-02 1.367748e-02 -2.773411e-02 -8.573890e-02
                9.293113e-01 -2.697448e-01 4.317819e-02 8.893131e-02 -2.728896e-02 -8.581539e-02 1.453959e-02 1.411806e-02
                1.258538e-02 1.375652e-02 -2.732307e-02 -8.592459e-02 5.253936e-02 8.293305e-02 9.295752e-01 -2.700798e-01
                -2.778195e-02 -8.584408e-02 1.455198e-02 1.421861e-02 9.296933e-01 -2.699741e-01 3.941821e-02 8.639547e-02
4.371795e+00    7.577534e-02 9.294423e-02 8.566876e-01 -4.453693e-01 8.170782e-03 -5.904935e-03 -4.291696e-02 -8.085032e-02
                8.566115e-01 -4.453367e-01 6.907434e-02 9.625707e-02 -4.252788e-02 -8.105771e-02 1.020958e-02 -5.848512e-03
                8.246004e-03 -5.835122e-03 -4.258438e-02 -8.115896e-02 7.689756e-02 8.854353e-02 8.568400e-01 -4.457961e-01
                -4.298705e-02 -8.094409e-02 1.024970e-02 -5.756738e-03 8.569832e-01 -4.457155e-01 6.482680e-02 9.446247e-02
4.497436e+00    1.024132e-01 9.023237e-02 7.513263e-01 -6.025351e-01 -3.306633e-03 -2.267264e-02 -5.720742e-02 -7.413986e-02
                7.512527e-01 -6.024846e-01 9.680130e-02 9.451230e-02 -5.691359e-02 -7.445688e-02 -1.337194e-03 -2.298856e-02
                -3.222511e-03 -2.261374e-02 -5.699001e-02 -7.454560e-02 1.026688e-01 8.557512e-02 7.513893e-01 -6.030689e-01
                -5.729634e-02 -7.421754e-02 -1.273528e-03 -2.291355e-02 7.515519e-01 -6.030195e-01 9.222238e-02 9.357572e-02
4.623077e+00    1.271937e-01 7.873307e-02 6.178983e-01 -7.354539e-01 -2.074730e-02 -3.451973e-02 -7.091026e-02 -6.568843e-02
                6.178317e-01 -7.353851e-01 1.228899e-01 8.355489e-02 -7.074459e-02 -6.608195e-02 -1.892882e-02 -3.517428e-02
                -2.065674e-02 -3.447264e-02 -7.083760e-02 -6.615449e-02 1.265500e-01 7.399709e-02 6.178185e-01 -7.360690e-01
                -7.101370e-02 -6.574659e-02 -1.884805e-02 -3.512224e-02 6.179934e-01 -7.360556e-01 1.181685e-01 8.355729e-02
4.748718e+00    1.470122e-01 5.969043e-02 4.618600e-01 -8.394624e-01 -4.244839e-02 -3.976021e-02 -8.423916e-02 -5.518417e-02
                4.618048e-01 -8.393760e-01 1.440780e-01 6.457829e-02 -8.422468e-02 -5.561047e-02 -4.085046e-02 -4.070237e-02
                -4.235375e-02 -3.972509e-02 -8.433051e-02 -5.566424e-02 1.454742e-01 5.505762e-02 4.615944e-01 -8.401087e-01
                -8.435245e-02 -5.522070e-02 -4.076056e-02 -4.067716e-02 4.617735e-01 -8.401341e-01 1.394274e-01 6.555543e-02
4.874359e+00    1.594731e-01 3.543086e-02 2.892629e-01 -9.110550e-01 -6.629726e-02 -3.722544e-02 -9.709010e-02 -4.202573e-02
                2.892238e-01 -9.109528e-01 1.578036e-01 3.991532e-02 -9.723621e-02 -4.243291e-02 -6.497605e-02 -3.839036e-02
                -6.620053e-02 -3.720189e-02 -9.735098e-02 -4.246624e-02 1.570858e-01 3.108061e-02 2.887903e-01 -9.116633e-01
                -9.720865e-02 -4.203972e-02 -6.488574e-02 -3.839319e-02 2.889646e-01 -9.117287e-01 1.534510e-01 4.184994e-02
5.000000e+00    1.632408e-01 9.001855e-03 1.065696e-01 -9.478662e-01 -8.989130e-02 -2.634020e-02 -1.088897e-01 -2.552827e-02
                1.065509e-01 -9.477512e-01 1.625760e-01 1.267649e-02 -1.091887e-01 -2.586014e-02 -8.888855e-02 -2.765073e-02
                -8.979402e-02 -2.632749e-02 -1.093087e-01 -2.587211e-02 1.600913e-01 5.102519e-03 1.058980e-01 -9.483580e-01
                -1.090092e-01 -2.551972e-02 -8.880646e-02 -2.768011e-02 1.060584e-01 -9.484624e-01 1.587496e-01 1.549234e-02
