! Generated by EMerge - 2-port S-parameters
! File generated: 2026-03-04 05:30 
! --- Coupled-Line BPF 5000 MHz ---
! Substrate: RO4003C
! h = 0.508 mm
! W50 = 1.1 mm, Lfeed = 5 mm
! L1 = 8.93 mm, S1 = 0.2 mm, W1 = 0.76 mm
! L2 = 8.93 mm, S2 = 0.2 mm, W2 = 1.08 mm
! Run time = 0.82 min
# GHZ S RI R 50
2.500000e+00  -6.830076e-01  -6.977793e-01  -7.357571e-05  -3.183903e-06  -7.413682e-05  -2.227749e-06  -6.856831e-01  -6.950751e-01
2.602041e+00  -7.535253e-01  -6.198191e-01  -8.667487e-05  1.829735e-05  -8.720225e-05  1.946147e-05  -7.560678e-01  -6.166296e-01
2.704082e+00  -8.160268e-01  -5.336202e-01  -9.414388e-05  4.114392e-05  -9.460827e-05  4.254671e-05  -8.183552e-01  -5.299435e-01
2.806122e+00  -8.694549e-01  -4.398697e-01  -9.469305e-05  6.205446e-05  -9.505649e-05  6.373017e-05  -8.714841e-01  -4.357183e-01
2.908163e+00  -9.127843e-01  -3.393833e-01  -8.778628e-05  7.605797e-05  -8.799966e-05  7.804481e-05  -9.144272e-01  -3.347856e-01
3.010204e+00  -9.450335e-01  -2.331068e-01  -7.434378e-05  7.602344e-05  -7.434339e-05  7.836414e-05  -9.462046e-01  -2.281078e-01
3.112245e+00  -9.652760e-01  -1.221146e-01  -5.785213e-05  5.205915e-05  -5.755484e-05  5.480157e-05  -9.658938e-01  -1.167766e-01
3.214286e+00  -9.726487e-01  -7.608036e-03  -4.612463e-05  -9.212019e-06  -4.542096e-05  -6.014273e-06  -9.726398e-01  -2.009783e-03
3.316327e+00  -9.663573e-01  1.090875e-01  -5.412560e-05  -1.254984e-04  -5.286953e-05  -1.217855e-04  -9.656589e-01  1.148519e-01
3.418367e+00  -9.456758e-01  2.265253e-01  -1.085830e-04  -3.197549e-04  -1.065766e-04  -3.154607e-04  -9.442387e-01  2.323483e-01
3.520408e+00  -9.099371e-01  3.431374e-01  -2.557007e-04  -6.209813e-04  -2.526707e-04  -6.160347e-04  -9.077271e-01  3.489013e-01
3.622449e+00  -8.585088e-01  4.572290e-01  -5.744302e-04  -1.064369e-03  -5.699903e-04  -1.058698e-03  -8.555073e-01  4.628086e-01
3.724490e+00  -7.907477e-01  5.669598e-01  -1.200106e-03  -1.689337e-03  -1.193695e-03  -1.682882e-03  -7.869491e-01  5.722258e-01
3.826531e+00  -7.059147e-01  6.702993e-01  -2.368260e-03  -2.531529e-03  -2.359042e-03  -2.524266e-03  -7.013214e-01  6.751207e-01
3.928571e+00  -6.030245e-01  7.649270e-01  -4.499774e-03  -3.597805e-03  -4.486449e-03  -3.589814e-03  -5.976350e-01  7.691702e-01
4.030612e+00  -4.805677e-01  8.480137e-01  -8.375736e-03  -4.792010e-03  -8.356205e-03  -4.783638e-03  -4.743555e-01  8.515342e-01
4.132653e+00  -3.359739e-01  9.157133e-01  -1.552039e-02  -5.688434e-03  -1.549107e-02  -5.680711e-03  -3.288468e-01  9.183279e-01
4.234694e+00  -1.644946e-01  9.618593e-01  -2.910205e-02  -4.781965e-03  -2.905650e-02  -4.777806e-03  -1.562165e-01  9.632628e-01
4.336735e+00  4.330339e-02  9.739967e-01  -5.618603e-02  3.360047e-03  -5.611168e-02  3.351880e-03  5.326996e-02  9.734985e-01
4.438776e+00  3.067514e-01  9.177303e-01  -1.128422e-01  4.145910e-02  -1.127139e-01  4.140788e-02  3.194852e-01  9.132518e-01
4.540816e+00  6.388576e-01  6.514380e-01  -2.081882e-01  2.305069e-01  -2.079811e-01  2.302748e-01  6.544519e-01  6.347550e-01
4.642857e+00  3.800092e-01  -6.380069e-02  3.295804e-01  7.604033e-01  3.293017e-01  7.597330e-01  3.641930e-01  -1.023545e-01
4.744898e+00  8.634748e-02  3.586480e-01  8.595057e-01  -9.643052e-02  8.588448e-01  -9.637967e-02  5.585586e-02  3.613562e-01
4.846939e+00  2.813416e-01  2.115391e-01  5.434842e-01  -6.925081e-01  5.430971e-01  -6.920660e-01  2.677325e-01  2.278065e-01
4.948980e+00  -1.231058e-02  2.062265e-02  -1.579223e-01  -9.254160e-01  -1.578695e-01  -9.248792e-01  -1.092873e-02  3.304191e-02
5.051020e+00  -1.998528e-01  3.326468e-01  -7.075781e-01  -4.884226e-01  -7.072577e-01  -4.881578e-01  -1.994574e-01  3.338199e-01
5.153061e+00  4.177609e-02  4.907674e-01  -8.091396e-01  4.635062e-02  -8.088239e-01  4.636370e-02  3.111006e-02  4.921854e-01
5.255102e+00  1.547088e-01  1.565385e-01  -5.903995e-01  6.793132e-01  -5.902091e-01  6.791354e-01  1.377495e-01  1.776289e-01
5.357143e+00  -4.885322e-01  3.329607e-01  3.343031e-01  6.060630e-01  3.342534e-01  6.059507e-01  -4.714566e-01  3.620794e-01
5.459184e+00  -2.100309e-01  8.710686e-01  3.004970e-01  9.117871e-02  3.004816e-01  9.117667e-02  -1.894360e-01  8.768971e-01
5.561224e+00  1.350679e-01  9.425913e-01  1.618103e-01  -1.625270e-02  1.618274e-01  -1.624709e-02  1.490028e-01  9.410470e-01
5.663265e+00  3.756354e-01  8.924262e-01  9.229480e-02  -3.632548e-02  9.232427e-02  -3.632606e-02  3.848619e-01  8.888428e-01
5.765306e+00  5.530841e-01  8.020505e-01  5.702448e-02  -4.034333e-02  5.705997e-02  -4.035135e-02  5.591647e-01  7.980653e-01
5.867347e+00  6.893789e-01  6.885732e-01  3.774505e-02  -4.601803e-02  3.778761e-02  -4.603574e-02  6.932809e-01  6.847630e-01
5.969388e+00  7.818962e-01  5.356847e-01  1.317113e-02  -8.068620e-02  1.323340e-02  -8.074055e-02  7.840426e-01  5.320118e-01
6.071429e+00  8.206638e-01  5.213447e-01  -3.579522e-02  2.992028e-02  -3.584030e-02  2.989700e-02  8.215411e-01  5.197229e-01
6.173469e+00  9.185856e-01  3.744254e-01  -1.244302e-03  1.022372e-02  -1.250613e-03  1.021372e-02  9.191896e-01  3.731401e-01
6.275510e+00  9.643440e-01  2.403071e-01  1.927628e-03  4.597985e-03  1.929122e-03  4.585842e-03  9.645938e-01  2.395804e-01
6.377551e+00  9.886128e-01  1.105079e-01  2.384248e-03  2.775445e-03  2.388186e-03  2.761204e-03  9.886863e-01  1.103287e-01
6.479592e+00  9.953101e-01  -1.608835e-02  2.420457e-03  2.110794e-03  2.425176e-03  2.094708e-03  9.953565e-01  -1.579580e-02
6.581633e+00  9.861923e-01  -1.388455e-01  2.429536e-03  1.844085e-03  2.434394e-03  1.826246e-03  9.863182e-01  -1.381842e-01
6.683673e+00  9.625625e-01  -2.567455e-01  2.480109e-03  1.704868e-03  2.484858e-03  1.685203e-03  9.628327e-01  -2.558304e-01
6.785714e+00  9.255990e-01  -3.687090e-01  2.569100e-03  1.588241e-03  2.573671e-03  1.566506e-03  9.260393e-01  -3.676565e-01
6.887755e+00  8.764537e-01  -4.736992e-01  2.679774e-03  1.454822e-03  2.684182e-03  1.430572e-03  8.770543e-01  -4.726190e-01
6.989796e+00  8.162878e-01  -5.707638e-01  2.797303e-03  1.293515e-03  2.801593e-03  1.266044e-03  8.170078e-01  -5.697521e-01
7.091837e+00  7.462826e-01  -6.590550e-01  2.913288e-03  1.105629e-03  2.917485e-03  1.073869e-03  7.470557e-01  -6.581890e-01
7.193878e+00  6.676398e-01  -7.378404e-01  3.027572e-03  8.970834e-04  3.031611e-03  8.594339e-04  6.683798e-01  -7.371735e-01
7.295918e+00  5.815740e-01  -8.065066e-01  3.150282e-03  6.734913e-04  3.153884e-03  6.275114e-04  5.821821e-01  -8.060653e-01
7.397959e+00  4.893004e-01  -8.645579e-01  3.306162e-03  4.349540e-04  3.308560e-03  3.768009e-04  4.896724e-01  -8.643405e-01
7.500000e+00  3.920149e-01  -9.116066e-01  3.544620e-03  1.660194e-04  3.543882e-03  8.932317e-05  3.920493e-01  -9.115835e-01
