! Generated by EMerge - 2-port S-parameters
! File generated: 2026-03-04 05:02 
! --- Coupled-Line BPF 5000 MHz ---
! Substrate: RO4003C
! h = 0.508 mm
! W50 = 1.1 mm, Lfeed = 5 mm
! L1 = 8.93 mm, S1 = 0.1 mm, W1 = 0.76 mm
! L2 = 8.93 mm, S2 = 0.1 mm, W2 = 1.08 mm
! Run time = 0.92 min
# GHZ S RI R 50
2.500000e+00  -7.909478e-01  -5.704698e-01  1.086580e-04  -2.461508e-04  1.074350e-04  -2.455376e-04  -7.869708e-01  -5.759564e-01
2.602041e+00  -8.512737e-01  -4.744021e-01  8.984972e-05  -2.758947e-04  8.857456e-05  -2.750823e-04  -8.477883e-01  -4.806094e-01
2.704082e+00  -9.007324e-01  -3.704557e-01  7.047412e-05  -3.149912e-04  6.916327e-05  -3.139452e-04  -8.978603e-01  -3.773579e-01
2.806122e+00  -9.381486e-01  -2.596723e-01  4.829571e-05  -3.695596e-04  4.697272e-05  -3.682400e-04  -9.360159e-01  -2.672273e-01
2.908163e+00  -9.624004e-01  -1.432524e-01  1.843421e-05  -4.477636e-04  1.713244e-05  -4.461245e-04  -9.611366e-01  -1.513993e-01
3.010204e+00  -9.724298e-01  -2.255685e-02  -2.818144e-05  -5.600711e-04  -2.941502e-05  -5.580592e-04  -9.721664e-01  -3.121501e-02
3.112245e+00  -9.672509e-01  1.008885e-01  -1.071194e-04  -7.193553e-04  -1.082188e-04  -7.169096e-04  -9.681200e-01  9.182239e-02
3.214286e+00  -9.459549e-01  2.253868e-01  -2.439073e-04  -9.406345e-04  -2.447794e-04  -9.376860e-04  -9.480877e-01  2.160411e-01
3.316327e+00  -9.077101e-01  3.490580e-01  -4.792781e-04  -1.240048e-03  -4.797916e-04  -1.236520e-03  -9.112350e-01  3.395898e-01
3.418367e+00  -8.517571e-01  4.698175e-01  -8.772120e-04  -1.632266e-03  -8.771801e-04  -1.628079e-03  -8.567972e-01  4.604165e-01
3.520408e+00  -7.773952e-01  5.853368e-01  -1.537414e-03  -2.124726e-03  -1.536570e-03  -2.119802e-03  -7.840650e-01  5.762321e-01
3.622449e+00  -6.839617e-01  6.929764e-01  -2.614911e-03  -2.705359e-03  -2.612868e-03  -2.699641e-03  -6.923621e-01  6.844444e-01
3.724490e+00  -5.708015e-01  7.896686e-01  -4.351078e-03  -3.316800e-03  -4.347274e-03  -3.310284e-03  -5.810122e-01  7.820450e-01
3.826531e+00  -4.372316e-01  8.717144e-01  -7.122785e-03  -3.801689e-03  -7.116393e-03  -3.794499e-03  -4.492974e-01  8.654109e-01
3.928571e+00  -2.825139e-01  9.344257e-01  -1.151859e-02  -3.784262e-03  -1.150838e-02  -3.776797e-03  -2.964215e-01  9.299543e-01
4.030612e+00  -1.058820e-01  9.714760e-01  -1.844761e-02  -2.405854e-03  -1.843176e-02  -2.399115e-03  -1.215146e-01  9.694830e-01
4.132653e+00  9.323383e-02  9.736770e-01  -2.925134e-02  2.288889e-03  -2.922716e-02  2.292597e-03  7.618345e-02  9.749869e-01
4.234694e+00  3.142958e-01  9.265594e-01  -4.559555e-02  1.483394e-02  -4.555935e-02  1.482938e-02  2.965057e-01  9.322201e-01
4.336735e+00  5.522849e-01  8.054102e-01  -6.796225e-02  4.599767e-02  -6.791014e-02  4.597285e-02  5.351904e-01  8.166708e-01
4.438776e+00  7.845966e-01  5.657180e-01  -8.678471e-02  1.210719e-01  -8.671889e-02  1.209995e-01  7.712130e-01  5.836162e-01
4.540816e+00  9.181236e-01  1.389604e-01  -3.844666e-02  2.853189e-01  -3.840804e-02  2.851447e-01  9.142743e-01  1.620442e-01
4.642857e+00  6.583058e-01  -4.104719e-01  3.121529e-01  4.590442e-01  3.119854e-01  4.587643e-01  6.685802e-01  -3.934905e-01
4.744898e+00  3.515044e-02  -4.162043e-01  8.382259e-01  -2.099222e-03  8.377575e-01  -2.115379e-03  4.159334e-02  -4.151927e-01
4.846939e+00  -9.356043e-02  -1.018819e-01  5.621388e-01  -7.406778e-01  5.618315e-01  -7.402899e-01  -9.713321e-02  -9.622726e-02
4.948980e+00  -5.900288e-02  -3.460531e-03  -1.267461e-01  -9.337403e-01  -1.266867e-01  -9.332683e-01  -5.735486e-02  7.933705e-03
5.051020e+00  -1.717867e-02  1.358952e-02  -7.228189e-01  -6.073091e-01  -7.224766e-01  -6.070197e-01  -1.004791e-02  1.993855e-02
5.153061e+00  -1.729737e-02  -1.331225e-01  -9.271936e-01  6.957142e-02  -9.267860e-01  6.954121e-02  -1.451885e-02  -1.327888e-01
5.255102e+00  -3.903985e-01  -2.598537e-01  -4.734348e-01  6.498104e-01  -4.732464e-01  6.495535e-01  -3.934490e-01  -2.545987e-01
5.357143e+00  -7.465881e-01  1.628509e-01  9.320384e-02  5.309956e-01  9.317391e-02  5.308148e-01  -7.442605e-01  1.732908e-01
5.459184e+00  -6.250681e-01  6.345522e-01  2.212719e-01  2.359809e-01  2.212147e-01  2.359174e-01  -6.176287e-01  6.420403e-01
5.561224e+00  -3.402787e-01  8.725611e-01  1.837704e-01  7.961306e-02  1.837420e-01  7.959946e-02  -3.320154e-01  8.759556e-01
5.663265e+00  -6.069606e-02  9.537111e-01  1.317498e-01  1.245739e-02  1.317499e-01  1.245741e-02  -5.352894e-02  9.543240e-01
5.765306e+00  1.810358e-01  9.477081e-01  9.250881e-02  -1.622144e-02  9.253250e-02  -1.622341e-02  1.866070e-01  9.467760e-01
5.867347e+00  3.843525e-01  8.889552e-01  6.646694e-02  -3.110212e-02  6.651676e-02  -3.111777e-02  3.883831e-01  8.872980e-01
5.969388e+00  5.518137e-01  7.835644e-01  4.847382e-02  -5.468959e-02  4.857787e-02  -5.476803e-02  5.545316e-01  7.814891e-01
6.071429e+00  6.224867e-01  7.340631e-01  -2.982120e-02  1.236913e-03  -3.002282e-02  1.169355e-03  6.230687e-01  7.330767e-01
6.173469e+00  7.756866e-01  6.110590e-01  6.613999e-03  -2.386547e-03  6.554871e-03  -2.375129e-03  7.762079e-01  6.104902e-01
6.275510e+00  8.655328e-01  4.800056e-01  7.073393e-03  -5.157221e-03  7.043576e-03  -5.149690e-03  8.656416e-01  4.799427e-01
6.377551e+00  9.285921e-01  3.467326e-01  5.413811e-03  -5.164876e-03  5.394944e-03  -5.161542e-03  9.284555e-01  3.472579e-01
6.479592e+00  9.694641e-01  2.122889e-01  3.948892e-03  -4.350834e-03  3.935001e-03  -4.350764e-03  9.692659e-01  2.134102e-01
6.581633e+00  9.903155e-01  7.846903e-02  2.944980e-03  -3.332589e-03  2.933342e-03  -3.335014e-03  9.902207e-01  8.015088e-02
6.683673e+00  9.927623e-01  -5.292784e-02  2.358989e-03  -2.344176e-03  2.348114e-03  -2.348494e-03  9.929107e-01  -5.074971e-02
6.785714e+00  9.782310e-01  -1.802331e-01  2.100890e-03  -1.478201e-03  2.089864e-03  -1.483927e-03  9.787365e-01  -1.776426e-01
6.887755e+00  9.480765e-01  -3.019316e-01  2.088259e-03  -7.669102e-04  2.076474e-03  -7.736331e-04  9.490280e-01  -2.990256e-01
6.989796e+00  9.036334e-01  -4.166612e-01  2.257643e-03  -2.150189e-04  2.244658e-03  -2.223864e-04  9.050960e-01  -4.135450e-01
7.091837e+00  8.462391e-01  -5.232101e-01  2.565988e-03  1.849166e-04  2.551455e-03  1.772146e-04  8.482551e-01  -5.199928e-01
7.193878e+00  7.772420e-01  -6.205127e-01  2.990846e-03  4.439585e-04  2.974457e-03  4.361971e-04  7.798331e-01  -6.173043e-01
7.295918e+00  6.980002e-01  -7.076457e-01  3.532637e-03  5.701871e-04  3.514072e-03  5.626114e-04  7.011688e-01  -7.045540e-01
7.397959e+00  6.098696e-01  -7.838205e-01  4.221905e-03  5.600212e-04  4.200769e-03  5.528483e-04  6.136010e-01  -7.809491e-01
7.500000e+00  5.141793e-01  -8.483650e-01  5.137404e-03  3.798446e-04  5.113109e-03  3.732724e-04  5.184431e-01  -8.458116e-01
