! Generated by EMerge - 2-port S-parameters
! File generated: 2026-03-04 05:00 
! --- Coupled-Line BPF 5000 MHz ---
! Substrate: RO4003C
! h = 0.508 mm
! W50 = 1.1 mm, Lfeed = 5 mm
! L1 = 8.93 mm, S1 = 0.1 mm, W1 = 0.76 mm
! L2 = 8.93 mm, S2 = 0.1 mm, W2 = 1.08 mm
! Run time = 0.89 min
# GHZ S RI R 50
2.500000e+00  -7.913363e-01  -5.699976e-01  -4.431828e-04  5.294282e-04  -4.431125e-04  5.289517e-04  -7.900670e-01  -5.716535e-01
2.602041e+00  -8.514547e-01  -4.741672e-01  -4.401678e-04  6.883950e-04  -4.401338e-04  6.878385e-04  -8.504037e-01  -4.759170e-01
2.704082e+00  -9.007499e-01  -3.705396e-01  -4.097451e-04  8.698396e-04  -4.097624e-04  8.691943e-04  -8.999234e-01  -3.723610e-01
2.806122e+00  -9.380683e-01  -2.601573e-01  -3.440733e-04  1.071809e-03  -3.441608e-04  1.071066e-03  -9.374697e-01  -2.620315e-01
2.908163e+00  -9.623121e-01  -1.442183e-01  -2.345499e-04  1.290506e-03  -2.347313e-04  1.289658e-03  -9.619443e-01  -1.461306e-01
3.010204e+00  -9.724512e-01  -2.407915e-02  -7.206255e-05  1.519765e-03  -7.236717e-05  1.518806e-03  -9.723186e-01  -2.601867e-02
3.112245e+00  -9.675321e-01  9.874220e-02  1.525708e-04  1.750431e-03  1.521069e-04  1.749359e-03  -9.676428e-01  9.678292e-02
3.214286e+00  -9.466852e-01  2.225601e-01  4.478667e-04  1.969625e-03  4.472000e-04  1.968443e-03  -9.470535e-01  2.205872e-01
3.316327e+00  -9.091290e-01  3.455109e-01  8.204724e-04  2.159914e-03  8.195506e-04  2.158633e-03  -9.097768e-01  3.435322e-01
3.418367e+00  -8.541700e-01  4.655340e-01  1.273203e-03  2.298433e-03  1.271965e-03  2.297076e-03  -8.551280e-01  4.635630e-01
3.520408e+00  -7.811995e-01  5.803391e-01  1.801832e-03  2.356138e-03  1.800208e-03  2.354747e-03  -7.825062e-01  5.784003e-01
3.622449e+00  -6.896865e-01  6.873504e-01  2.389809e-03  2.297636e-03  2.387722e-03  2.296276e-03  -6.913850e-01  6.854858e-01
3.724490e+00  -5.791706e-01  7.836144e-01  2.999486e-03  2.082661e-03  2.996856e-03  2.081432e-03  -5.813015e-01  7.818901e-01
3.826531e+00  -4.492621e-01  8.656461e-01  3.557477e-03  1.671820e-03  3.554230e-03  1.670873e-03  -4.518501e-01  8.641582e-01
3.928571e+00  -2.996673e-01  9.291763e-01  3.930309e-03  1.042841e-03  3.926398e-03  1.042394e-03  -3.027001e-01  9.280526e-01
4.030612e+00  -1.302852e-01  9.687319e-01  3.884900e-03  2.324797e-04  3.880341e-03  2.328366e-04  -1.336781e-01  9.681233e-01
4.132653e+00  5.851937e-02  9.769353e-01  3.029461e-03  -5.584616e-04  3.024407e-03  -5.568848e-04  5.497438e-02  9.769809e-01
4.234694e+00  2.652006e-01  9.433337e-01  7.483379e-04  -7.028727e-04  7.432172e-04  -6.995506e-04  2.619015e-01  9.440665e-01
4.336735e+00  4.852038e-01  8.524776e-01  -3.756724e-03  1.508286e-03  -3.760943e-03  1.513906e-03  4.827907e-01  8.535982e-01
4.438776e+00  7.062511e-01  6.810344e-01  -1.074246e-02  1.046783e-02  -1.074379e-02  1.047597e-02  7.054940e-01  6.814128e-01
4.540816e+00  8.958944e-01  3.950235e-01  -1.588442e-02  3.665855e-02  -1.587923e-02  3.666789e-02  8.968441e-01  3.917932e-01
4.642857e+00  9.685422e-01  -4.276138e-02  7.880660e-03  9.886922e-02  7.897631e-03  9.887330e-02  9.671541e-01  -5.468355e-02
4.744898e+00  7.149744e-01  -5.904843e-01  1.680399e-01  1.771178e-01  1.680686e-01  1.770972e-01  6.954673e-01  -6.108848e-01
4.846939e+00  -6.025194e-02  -7.351154e-01  5.458096e-01  -1.103401e-01  5.458121e-01  -1.104122e-01  -1.064257e-01  -7.269892e-01
4.948980e+00  -1.915058e-01  -6.689329e-02  7.900247e-03  -8.784565e-01  7.804492e-03  -8.785270e-01  -1.951643e-01  -3.846911e-02
5.051020e+00  6.778086e-02  -4.358600e-01  -7.865881e-01  -1.564354e-01  -7.867358e-01  -1.563906e-01  3.716857e-02  -4.376699e-01
5.153061e+00  -6.220269e-01  -4.830135e-01  -3.022318e-01  3.871764e-01  -3.023004e-01  3.873166e-01  -6.577421e-01  -4.319807e-01
5.255102e+00  -8.966079e-01  8.708642e-02  2.404662e-02  2.658458e-01  2.406724e-02  2.659836e-01  -8.887286e-01  1.493282e-01
5.357143e+00  -7.616426e-01  5.462973e-01  8.611710e-02  1.236001e-01  8.618641e-02  1.237046e-01  -7.289826e-01  5.903456e-01
5.459184e+00  -5.053377e-01  8.077026e-01  7.636783e-02  4.967841e-02  7.646246e-02  4.974975e-02  -4.654661e-01  8.322337e-01
5.561224e+00  -2.383377e-01  9.312765e-01  5.706706e-02  1.547507e-02  5.717878e-02  1.551731e-02  -1.993838e-01  9.411374e-01
5.663265e+00  7.059486e-03  9.665972e-01  4.160997e-02  -6.111678e-04  4.174053e-02  -5.978274e-04  4.197961e-02  9.663298e-01
5.765306e+00  2.236963e-01  9.430238e-01  3.195404e-02  -1.037055e-02  3.211859e-02  -1.039840e-02  2.536479e-01  9.358700e-01
5.867347e+00  4.121004e-01  8.691049e-01  2.794768e-02  -2.886627e-02  2.820654e-02  -2.903486e-02  4.369020e-01  8.567459e-01
5.969388e+00  5.025247e-01  8.197145e-01  -4.370475e-02  6.990236e-03  -4.414533e-02  6.881148e-03  5.198621e-01  8.077977e-01
6.071429e+00  6.728225e-01  7.200082e-01  -5.141304e-03  9.736674e-03  -5.230012e-03  9.787414e-03  6.880754e-01  7.059564e-01
6.173469e+00  7.834494e-01  6.016510e-01  -1.075937e-03  7.144961e-03  -1.100188e-03  7.179872e-03  7.951641e-01  5.866680e-01
6.275510e+00  8.672335e-01  4.764891e-01  3.958751e-05  6.464147e-03  3.984262e-05  6.486458e-03  8.757232e-01  4.613365e-01
6.377551e+00  9.283304e-01  3.466983e-01  6.886379e-04  6.399145e-03  7.014735e-04  6.411613e-03  9.339998e-01  3.318565e-01
6.479592e+00  9.686769e-01  2.146362e-01  1.317850e-03  6.511123e-03  1.338287e-03  6.515221e-03  9.719209e-01  2.004284e-01
6.581633e+00  9.897213e-01  8.248592e-02  2.015826e-03  6.626776e-03  2.041414e-03  6.623189e-03  9.909052e-01  6.912889e-02
6.683673e+00  9.927522e-01  -4.778346e-02  2.785783e-03  6.673304e-03  2.815213e-03  6.662171e-03  9.922064e-01  -6.015037e-02
6.785714e+00  9.790054e-01  -1.744016e-01  3.611769e-03  6.622002e-03  3.644323e-03  6.602995e-03  9.770245e-01  -1.856967e-01
6.887755e+00  9.497104e-01  -2.957783e-01  4.478515e-03  6.465063e-03  4.513808e-03  6.437369e-03  9.465541e-01  -3.059627e-01
6.989796e+00  9.061124e-01  -4.104895e-01  5.378787e-03  6.204440e-03  5.416622e-03  6.166659e-03  9.020070e-01  -4.195557e-01
7.091837e+00  8.494796e-01  -5.172682e-01  6.317821e-03  5.845345e-03  6.358073e-03  5.795275e-03  8.446217e-01  -5.252307e-01
7.193878e+00  7.811014e-01  -6.149964e-01  7.318832e-03  5.390814e-03  7.361323e-03  5.325053e-03  7.756614e-01  -6.218845e-01
7.295918e+00  7.022762e-01  -7.026970e-01  8.433181e-03  4.834151e-03  8.477441e-03  4.747369e-03  6.964040e-01  -7.085491e-01
7.397959e+00  6.142833e-01  -7.795162e-01  9.761744e-03  4.142910e-03  9.806451e-03  4.026412e-03  6.081159e-01  -7.843767e-01
7.500000e+00  5.183246e-01  -8.446755e-01  1.150367e-02  3.214649e-03  1.154508e-02  3.053309e-03  5.119991e-01  -8.485962e-01
