! Generated by EMerge - 2-port S-parameters
! File generated: 2026-03-04 05:32 
! --- Coupled-Line BPF 5000 MHz ---
! Substrate: RO4003C
! h = 0.508 mm
! W50 = 1.1 mm, Lfeed = 5 mm
! L1 = 8.93 mm, S1 = 0.11 mm, W1 = 0.76 mm
! L2 = 8.93 mm, S2 = 0.11 mm, W2 = 1.08 mm
! Run time = 0.90 min
# GHZ S RI R 50
2.500000e+00  -7.771754e-01  -5.893249e-01  2.815652e-04  -4.704142e-04  2.808789e-04  -4.696145e-04  -7.769957e-01  -5.895535e-01
2.602041e+00  -8.392715e-01  -4.955750e-01  2.590568e-04  -5.577272e-04  2.583939e-04  -5.567342e-04  -8.391048e-01  -4.958473e-01
2.704082e+00  -8.908883e-01  -3.938146e-01  2.279534e-04  -6.643751e-04  2.273412e-04  -6.631585e-04  -8.907389e-01  -3.941399e-01
2.806122e+00  -9.308529e-01  -2.850306e-01  1.831504e-04  -7.978204e-04  1.826257e-04  -7.963458e-04  -9.307284e-01  -2.854201e-01
2.908163e+00  -9.580409e-01  -1.703654e-01  1.159657e-04  -9.677205e-04  1.155776e-04  -9.659486e-04  -9.579530e-01  -1.708309e-01
3.010204e+00  -9.713869e-01  -5.111864e-02  1.222679e-05  -1.186184e-03  1.204145e-05  -1.184070e-03  -9.713528e-01  -5.167208e-02
3.112245e+00  -9.698926e-01  7.124958e-02  -1.505831e-04  -1.467840e-03  -1.504762e-04  -1.465335e-03  -9.699354e-01  7.059807e-02
3.214286e+00  -9.526311e-01  1.951137e-01  -4.076229e-04  -1.829488e-03  -4.071018e-04  -1.826539e-03  -9.527805e-01  1.943576e-01
3.316327e+00  -9.187459e-01  3.186730e-01  -8.132448e-04  -2.288848e-03  -8.121414e-04  -2.285399e-03  -9.190384e-01  3.178121e-01
3.418367e+00  -8.674433e-01  4.399334e-01  -1.451125e-03  -2.861472e-03  -1.449205e-03  -2.857470e-03  -8.679212e-01  4.389765e-01
3.520408e+00  -7.979738e-01  5.566729e-01  -2.450181e-03  -3.553867e-03  -2.447118e-03  -3.549274e-03  -7.986837e-01  5.556415e-01
3.622449e+00  -7.096015e-01  6.663803e-01  -4.010002e-03  -4.348795e-03  -4.005326e-03  -4.343610e-03  -7.105913e-01  6.653122e-01
3.724490e+00  -6.015557e-01  7.661436e-01  -6.442065e-03  -5.173979e-03  -6.435102e-03  -5.168281e-03  -6.028692e-01  7.650970e-01
3.826531e+00  -4.729615e-01  8.524508e-01  -1.023723e-02  -5.834587e-03  -1.022699e-02  -5.828630e-03  -4.746300e-01  8.515080e-01
3.928571e+00  -3.227493e-01  9.208211e-01  -1.617571e-02  -5.863455e-03  -1.616073e-02  -5.857852e-03  -3.247783e-01  9.200902e-01
4.030612e+00  -1.495631e-01  9.650994e-01  -2.549823e-02  -4.175221e-03  -2.547633e-02  -4.171353e-03  -1.519106e-01  9.647124e-01
4.132653e+00  4.822674e-02  9.760276e-01  -4.012463e-02  1.773622e-03  -4.009256e-02  1.772696e-03  4.568503e-02  9.761251e-01
4.234694e+00  2.719270e-01  9.381362e-01  -6.265865e-02  1.814338e-02  -6.261185e-02  1.813075e-02  2.694527e-01  9.388171e-01
4.336735e+00  5.190701e-01  8.225019e-01  -9.442419e-02  6.050522e-02  -9.435793e-02  6.046470e-02  5.171321e-01  8.236691e-01
4.438776e+00  7.651906e-01  5.704731e-01  -1.208015e-01  1.682694e-01  -1.207209e-01  1.681624e-01  7.644167e-01  5.713734e-01
4.540816e+00  8.713180e-01  8.974133e-02  -2.665753e-02  4.076945e-01  -2.663540e-02  4.074487e-01  8.712806e-01  8.798950e-02
4.642857e+00  4.412385e-01  -3.860078e-01  5.301851e-01  5.164895e-01  5.298930e-01  5.161906e-01  4.357488e-01  -3.911423e-01
4.744898e+00  3.251620e-03  -1.625239e-01  9.043514e-01  -1.969681e-01  9.038719e-01  -1.968754e-01  -7.974024e-03  -1.600446e-01
4.846939e+00  1.465324e-02  -1.251347e-02  4.906927e-01  -8.093517e-01  4.904427e-01  -8.089581e-01  8.829285e-03  -3.116183e-03
4.948980e+00  -2.708951e-02  1.537606e-03  -1.550013e-01  -9.351624e-01  -1.549373e-01  -9.347322e-01  -2.596013e-02  9.664992e-03
5.051020e+00  -5.478936e-02  6.785849e-02  -7.032480e-01  -6.295516e-01  -7.029514e-01  -6.292800e-01  -5.202627e-02  7.069568e-02
5.153061e+00  -1.274969e-04  3.333654e-02  -9.434512e-01  -3.694026e-02  -9.430798e-01  -3.692405e-02  -8.376322e-04  3.357855e-02
5.255102e+00  -1.769361e-01  -1.665768e-01  -6.562690e-01  6.186570e-01  -6.560323e-01  6.184328e-01  -1.800878e-01  -1.633439e-01
5.357143e+00  -6.311511e-01  6.191861e-02  3.023136e-02  6.800168e-01  3.021950e-02  6.797932e-01  -6.308971e-01  6.688544e-02
5.459184e+00  -6.121526e-01  5.865101e-01  2.713371e-01  3.127207e-01  2.712557e-01  3.126292e-01  -6.105392e-01  5.885105e-01
5.561224e+00  -3.215796e-01  8.649907e-01  2.298933e-01  9.747738e-02  2.298327e-01  9.745252e-02  -3.216152e-01  8.651433e-01
5.663265e+00  -2.788809e-02  9.504682e-01  1.603896e-01  1.087997e-02  1.603528e-01  1.087782e-02  -2.991437e-02  9.505054e-01
5.765306e+00  2.196275e-01  9.378509e-01  1.092256e-01  -2.278273e-02  1.092041e-01  -2.277772e-02  2.160672e-01  9.387370e-01
5.867347e+00  4.224953e-01  8.712779e-01  7.593388e-02  -3.799598e-02  7.592166e-02  -3.798738e-02  4.179708e-01  8.734952e-01
5.969388e+00  5.865155e-01  7.623772e-01  5.389884e-02  -5.741316e-02  5.389709e-02  -5.739557e-02  5.816250e-01  7.661786e-01
6.071429e+00  6.272921e-01  6.947658e-01  -5.131849e-02  -1.425871e-02  -5.128478e-02  -1.430240e-02  6.224768e-01  6.993353e-01
6.173469e+00  7.987586e-01  5.809841e-01  7.112218e-03  -3.895260e-03  7.103580e-03  -3.916779e-03  7.939486e-01  5.874892e-01
6.275510e+00  8.842027e-01  4.459646e-01  8.037065e-03  -7.534759e-03  8.025181e-03  -7.549948e-03  8.800875e-01  4.539453e-01
6.377551e+00  9.417740e-01  3.108922e-01  6.013605e-03  -7.547015e-03  5.999153e-03  -7.559446e-03  9.386304e-01  3.201352e-01
6.479592e+00  9.772166e-01  1.758993e-01  4.195256e-03  -6.556777e-03  4.177932e-03  -6.567010e-03  9.752720e-01  1.861902e-01
6.581633e+00  9.929356e-01  4.244534e-02  2.908845e-03  -5.333140e-03  2.888314e-03  -5.340949e-03  9.923702e-01  5.354990e-02
6.683673e+00  9.906455e-01  -8.786174e-02  2.098950e-03  -4.149678e-03  2.074922e-03  -4.154484e-03  9.915921e-01  -7.619483e-02
6.785714e+00  9.718276e-01  -2.134911e-01  1.657852e-03  -3.108105e-03  1.630078e-03  -3.109084e-03  9.743715e-01  -2.015245e-01
6.887755e+00  9.378716e-01  -3.330391e-01  1.488778e-03  -2.240371e-03  1.457042e-03  -2.236449e-03  9.420513e-01  -3.210400e-01
6.989796e+00  8.901353e-01  -4.452405e-01  1.517347e-03  -1.548024e-03  1.481460e-03  -1.537814e-03  8.959433e-01  -4.334739e-01
7.091837e+00  8.299708e-01  -5.489707e-01  1.691716e-03  -1.019730e-03  1.651524e-03  -1.001403e-03  8.373557e-01  -5.376931e-01
7.193878e+00  7.587358e-01  -6.432458e-01  1.981300e-03  -6.403741e-04  1.936715e-03  -6.114371e-04  7.676045e-01  -6.326987e-01
7.295918e+00  6.777935e-01  -7.272204e-01  2.377262e-03  -3.973778e-04  2.328337e-03  -3.542921e-04  6.880138e-01  -7.176243e-01
7.397959e+00  5.885038e-01  -8.001824e-01  2.897091e-03  -2.881286e-04  2.844216e-03  -2.255983e-04  5.999075e-01  -7.917313e-01
7.500000e+00  4.922038e-01  -8.615396e-01  3.597557e-03  -3.347265e-04  3.541993e-03  -2.442932e-04  5.045885e-01  -8.543952e-01
