! Generated by EMerge - 2-port S-parameters
! File generated: 2026-03-04 04:54 
! --- Coupled-Line BPF 5000 MHz ---
! Substrate: RO4003C
! h = 0.508 mm
! W50 = 1.1 mm, Lfeed = 5 mm
! L1 = 8.93 mm, S1 = 0.1 mm, W1 = 0.8 mm
! L2 = 8.93 mm, S2 = 0.1 mm, W2 = 1.08 mm
! Run time = 1.03 min
# GHZ S RI R 50
2.500000e+00  -8.053859e-01  -5.497134e-01  -2.217797e-04  2.334566e-04  -2.213255e-04  2.312307e-04  -8.007850e-01  -5.564468e-01
2.602041e+00  -8.628565e-01  -4.528368e-01  -2.247124e-04  3.176502e-04  -2.244626e-04  3.150503e-04  -8.587981e-01  -4.605431e-01
2.704082e+00  -9.093425e-01  -3.486790e-01  -2.112874e-04  4.109154e-04  -2.113185e-04  4.079079e-04  -9.059979e-01  -3.573380e-01
2.806122e+00  -9.437939e-01  -2.383273e-01  -1.779481e-04  5.096143e-04  -1.783543e-04  5.061677e-04  -9.413425e-01  -2.478913e-01
2.908163e+00  -9.652309e-01  -1.230057e-01  -1.217666e-04  6.083104e-04  -1.226636e-04  6.043967e-04  -9.638565e-01  -1.333965e-01
3.010204e+00  -9.727523e-01  -4.073649e-03  -4.115889e-05  6.993943e-04  -4.268888e-05  6.949918e-04  -9.726390e-01  -1.517935e-02
3.112245e+00  -9.655415e-01  1.169750e-01  6.302298e-05  7.727076e-04  6.068433e-05  7.678046e-04  -9.668689e-01  1.053021e-01
3.214286e+00  -9.428693e-01  2.385098e-01  1.858150e-04  8.152221e-04  1.824494e-04  8.098225e-04  -9.458071e-01  2.264559e-01
3.316327e+00  -9.040912e-01  3.587574e-01  3.155523e-04  8.109104e-04  3.108863e-04  8.050419e-04  -9.087934e-01  3.465491e-01
3.418367e+00  -8.486407e-01  4.757863e-01  4.298225e-04  7.410963e-04  4.235099e-04  7.348242e-04  -8.552387e-01  4.636930e-01
3.520408e+00  -7.760145e-01  5.874784e-01  4.890520e-04  5.859077e-04  4.806489e-04  5.793562e-04  -7.846094e-01  5.758140e-01
3.622449e+00  -6.857510e-01  6.914758e-01  4.261929e-04  3.281676e-04  4.151219e-04  3.215555e-04  -6.964047e-01  6.806021e-01
3.724490e+00  -5.774010e-01  7.850899e-01  1.299131e-04  -3.734413e-05  1.154116e-04  -4.364117e-05  -5.901240e-01  7.754204e-01
3.826531e+00  -4.504923e-01  8.651438e-01  -5.830701e-04  -4.826842e-04  -6.020251e-04  -4.880240e-04  -4.652278e-01  8.571487e-01
3.928571e+00  -3.044992e-01  9.276992e-01  -2.013509e-03  -8.983796e-04  -2.038308e-03  -9.016502e-04  -3.210984e-01  9.219136e-01
4.030612e+00  -1.388441e-01  9.675769e-01  -4.652608e-03  -9.813468e-04  -4.685155e-03  -9.805740e-04  -1.570267e-01  9.646093e-01
4.132653e+00  4.697898e-02  9.774859e-01  -9.287759e-03  3.252390e-05  -9.330620e-03  4.096729e-05  2.769244e-02  9.780251e-01
4.234694e+00  2.528956e-01  9.463861e-01  -1.709805e-02  4.030715e-03  -1.715445e-02  4.053784e-03  2.333059e-01  9.511913e-01
4.336735e+00  4.764941e-01  8.562819e-01  -2.941712e-02  1.572574e-02  -2.949000e-02  1.577742e-02  4.579488e-01  8.661054e-01
4.438776e+00  7.069284e-01  6.758664e-01  -4.535368e-02  4.705145e-02  -4.544042e-02  4.716102e-02  6.917254e-01  6.911370e-01
4.540816e+00  9.019622e-01  3.501551e-01  -4.755624e-02  1.266308e-01  -4.762361e-02  1.268582e-01  8.938817e-01  3.698235e-01
4.642857e+00  9.001186e-01  -1.812487e-01  6.799843e-02  2.891473e-01  6.811843e-02  2.895670e-01  9.033308e-01  -1.633119e-01
4.744898e+00  3.345612e-01  -6.248063e-01  5.585005e-01  2.527949e-01  5.592114e-01  2.530937e-01  3.412250e-01  -6.205932e-01
4.846939e+00  -1.734702e-01  -2.646858e-01  6.625621e-01  -5.623317e-01  6.632830e-01  -5.629569e-01  -1.775192e-01  -2.605781e-01
4.948980e+00  -8.043752e-02  -7.698974e-03  -1.225004e-01  -9.202066e-01  -1.226194e-01  -9.211067e-01  -7.957324e-02  2.134416e-04
5.051020e+00  3.870999e-02  -8.633940e-02  -8.080377e-01  -4.560155e-01  -8.087529e-01  -4.564260e-01  3.931592e-02  -8.532176e-02
5.153061e+00  -2.049075e-01  -3.642179e-01  -7.350818e-01  3.766121e-01  -7.356907e-01  3.769175e-01  -2.120992e-01  -3.598084e-01
5.255102e+00  -7.455780e-01  -8.298836e-02  -8.278883e-02  5.415630e-01  -8.285621e-02  5.419856e-01  -7.469503e-01  -7.145193e-02
5.357143e+00  -7.524031e-01  4.779278e-01  1.539571e-01  2.667614e-01  1.540724e-01  2.669633e-01  -7.478594e-01  4.855301e-01
5.459184e+00  -4.897539e-01  7.997160e-01  1.482254e-01  9.955457e-02  1.483343e-01  9.962959e-02  -4.852677e-01  8.027352e-01
5.561224e+00  -2.047374e-01  9.338691e-01  1.081099e-01  2.803941e-02  1.081884e-01  2.806348e-02  -2.021959e-01  9.346096e-01
5.663265e+00  4.834762e-02  9.638427e-01  7.554264e-02  -1.811495e-03  7.559761e-02  -1.805116e-03  4.892380e-02  9.639352e-01
5.765306e+00  2.642088e-01  9.330765e-01  5.383067e-02  -1.560392e-02  5.387205e-02  -1.559930e-02  2.632988e-01  9.334021e-01
5.867347e+00  4.467573e-01  8.606742e-01  4.095860e-02  -2.713890e-02  4.100103e-02  -2.712221e-02  4.449267e-01  8.616163e-01
5.969388e+00  5.790482e-01  7.238599e-01  1.333259e-02  -7.634404e-02  1.348602e-02  -7.630711e-02  5.767643e-01  7.249993e-01
6.071429e+00  6.836407e-01  7.057804e-01  -1.182206e-02  1.153134e-02  -1.183273e-02  1.143276e-02  6.804715e-01  7.087224e-01
6.173469e+00  7.992848e-01  5.818705e-01  1.167053e-03  4.526199e-03  1.148257e-03  4.475000e-03  7.965022e-01  5.856520e-01
6.275510e+00  8.793598e-01  4.556628e-01  2.411368e-03  2.599114e-03  2.390230e-03  2.562686e-03  8.770023e-01  4.601576e-01
6.377551e+00  9.363682e-01  3.267794e-01  2.381323e-03  2.282841e-03  2.357535e-03  2.254735e-03  9.345627e-01  3.318627e-01
6.479592e+00  9.732074e-01  1.966059e-01  2.296092e-03  2.482108e-03  2.269445e-03  2.460229e-03  9.720558e-01  2.021401e-01
6.581633e+00  9.915174e-01  6.685410e-02  2.366240e-03  2.816953e-03  2.336601e-03  2.800577e-03  9.910888e-01  7.269849e-02
6.683673e+00  9.925929e-01  -6.080243e-02  2.604603e-03  3.135066e-03  2.571838e-03  3.124105e-03  9.929269e-01  -5.478478e-02
6.785714e+00  9.776085e-01  -1.847988e-01  2.981567e-03  3.373269e-03  2.945512e-03  3.368057e-03  9.787198e-01  -1.787375e-01
6.887755e+00  9.477033e-01  -3.036913e-01  3.464289e-03  3.507891e-03  3.424731e-03  3.509141e-03  9.495867e-01  -2.977067e-01
6.989796e+00  9.040204e-01  -4.161584e-01  4.028117e-03  3.533672e-03  3.984791e-03  3.542534e-03  9.066546e-01  -4.103605e-01
7.091837e+00  8.477251e-01  -5.210004e-01  4.660852e-03  3.453275e-03  4.613439e-03  3.471482e-03  8.510755e-01  -5.154890e-01
7.193878e+00  7.800111e-01  -6.171390e-01  5.366249e-03  3.270618e-03  5.314399e-03  3.300765e-03  7.840323e-01  -6.120039e-01
7.295918e+00  7.020969e-01  -7.036163e-01  6.170087e-03  2.984278e-03  6.113480e-03  3.030336e-03  7.067330e-01  -6.989379e-01
7.397959e+00  6.152106e-01  -7.795878e-01  7.132974e-03  2.576399e-03  7.071522e-03  2.644704e-03  6.203946e-01  -7.754372e-01
7.500000e+00  5.205568e-01  -8.443009e-01  8.378966e-03  1.985842e-03  8.313448e-03  2.087148e-03  5.262058e-01  -8.407382e-01
