! Generated by EMerge - 2-port S-parameters
! File generated: 2026-03-04 05:23 
! --- Coupled-Line BPF 5000 MHz ---
! Substrate: RO4003C
! h = 0.508 mm
! W50 = 1.1 mm, Lfeed = 5 mm
! L1 = 8.93 mm, S1 = 0.1 mm, W1 = 0.76 mm
! L2 = 8.93 mm, S2 = 0.1 mm, W2 = 1.08 mm
! Run time = 1.03 min
# GHZ S RI R 50
2.500000e+00  -7.887532e-01  -5.735498e-01  3.432563e-04  -5.859161e-04  3.436685e-04  -5.834817e-04  -7.977254e-01  -5.607615e-01
2.602041e+00  -8.494043e-01  -4.777955e-01  3.135551e-04  -6.970189e-04  3.142894e-04  -6.942882e-04  -8.572421e-01  -4.633061e-01
2.704082e+00  -8.992442e-01  -3.741144e-01  2.709292e-04  -8.311317e-04  2.720653e-04  -8.280970e-04  -9.056442e-01  -3.580067e-01
2.806122e+00  -9.370910e-01  -2.635353e-01  2.086505e-04  -9.961725e-04  2.102823e-04  -9.928318e-04  -9.417458e-01  -2.459438e-01
2.908163e+00  -9.618127e-01  -1.472448e-01  1.157886e-04  -1.202164e-03  1.180271e-04  -1.198523e-03  -9.644184e-01  -1.283594e-01
3.010204e+00  -9.723375e-01  -2.659048e-02  -2.493572e-05  -1.461347e-03  -2.195855e-05  -1.457424e-03  -9.726022e-01  -6.659538e-03
3.112245e+00  -9.676608e-01  9.691480e-02  -2.403230e-04  -1.788003e-03  -2.364493e-04  -1.783830e-03  -9.653140e-01  1.175826e-01
3.214286e+00  -9.468493e-01  2.215860e-01  -5.714268e-04  -2.197665e-03  -5.664660e-04  -2.193296e-03  -9.416515e-01  2.426202e-01
3.316327e+00  -9.090390e-01  3.455528e-01  -1.080686e-03  -2.705116e-03  -1.074406e-03  -2.700635e-03  -9.007923e-01  3.665211e-01
3.418367e+00  -8.534275e-01  4.667365e-01  -1.862815e-03  -3.319975e-03  -1.854927e-03  -3.315508e-03  -8.419863e-01  4.871441e-01
3.520408e+00  -7.792560e-01  5.828080e-01  -3.061640e-03  -4.037480e-03  -3.051785e-03  -4.033221e-03  -7.645396e-01  6.020971e-01
3.622449e+00  -6.857816e-01  6.911145e-01  -4.896450e-03  -4.819579e-03  -4.884168e-03  -4.815825e-03  -6.677875e-01  7.086632e-01
3.724490e+00  -5.722353e-01  7.885512e-01  -7.703529e-03  -5.555949e-03  -7.688228e-03  -5.553161e-03  -5.510569e-01  8.036689e-01
3.826531e+00  -4.377686e-01  8.713334e-01  -1.200142e-02  -5.982235e-03  -1.198233e-02  -5.981146e-03  -4.136196e-01  8.832533e-01
3.928571e+00  -2.813980e-01  9.345857e-01  -1.859034e-02  -5.503600e-03  -1.856644e-02  -5.505419e-03  -2.546508e-01  9.424502e-01
4.030612e+00  -1.019939e-01  9.715698e-01  -2.868716e-02  -2.799564e-03  -2.865714e-02  -2.806360e-03  -7.324675e-02  9.744084e-01
4.132653e+00  1.015142e-01  9.721615e-01  -4.402909e-02  5.100162e-03  -4.399139e-02  5.084683e-03  1.313095e-01  9.688620e-01
4.234694e+00  3.290555e-01  9.196692e-01  -6.652046e-02  2.506896e-02  -6.647377e-02  2.503783e-02  3.583322e-01  9.089647e-01
4.336735e+00  5.746980e-01  7.839353e-01  -9.518523e-02  7.342927e-02  -9.513078e-02  7.336886e-02  6.007039e-01  7.645239e-01
4.438776e+00  8.057174e-01  5.083623e-01  -1.090009e-01  1.872474e-01  -1.089527e-01  1.871316e-01  8.232789e-01  4.797656e-01
4.540816e+00  8.755032e-01  2.230893e-02  1.153790e-02  4.108333e-01  1.151432e-02  4.106314e-01  8.756997e-01  -1.073135e-02
4.642857e+00  4.457765e-01  -4.282853e-01  5.402337e-01  4.726119e-01  5.399963e-01  4.724230e-01  4.272052e-01  -4.462190e-01
4.744898e+00  -1.433497e-02  -2.321645e-01  8.879712e-01  -2.049180e-01  8.876508e-01  -2.048404e-01  -2.625125e-02  -2.302525e-01
4.846939e+00  -2.983037e-02  -3.819078e-02  4.841477e-01  -8.114948e-01  4.839932e-01  -8.112450e-01  -3.271003e-02  -3.371457e-02
4.948980e+00  -3.751161e-02  8.761727e-04  -1.565851e-01  -9.346860e-01  -1.565504e-01  -9.344327e-01  -3.594286e-02  8.370009e-03
5.051020e+00  -4.060292e-02  3.918778e-02  -7.027483e-01  -6.340609e-01  -7.025849e-01  -6.339049e-01  -2.847428e-02  4.928467e-02
5.153061e+00  -1.281597e-02  -2.718425e-02  -9.434940e-01  -3.995454e-02  -9.432878e-01  -3.994392e-02  1.411555e-02  -2.685022e-02
5.255102e+00  -2.284026e-01  -1.984300e-01  -6.523430e-01  5.985696e-01  -6.522073e-01  5.984397e-01  -2.018596e-01  -2.239017e-01
5.357143e+00  -6.509811e-01  4.585327e-02  -5.302904e-03  6.670667e-01  -5.309102e-03  6.669182e-01  -6.513071e-01  9.604970e-03
5.459184e+00  -6.460582e-01  5.475788e-01  2.492472e-01  3.351228e-01  2.491782e-01  3.350406e-01  -6.627803e-01  5.256810e-01
5.561224e+00  -3.780460e-01  8.387446e-01  2.293321e-01  1.186461e-01  2.292558e-01  1.186100e-01  -3.955290e-01  8.298886e-01
5.663265e+00  -9.006325e-02  9.443543e-01  1.670088e-01  2.346106e-02  1.669323e-01  2.344916e-02  -1.040654e-01  9.424297e-01
5.765306e+00  1.605810e-01  9.480826e-01  1.166700e-01  -1.620602e-02  1.165864e-01  -1.620131e-02  1.501530e-01  9.494505e-01
5.867347e+00  3.700649e-01  8.935966e-01  8.240531e-02  -3.455677e-02  8.229775e-02  -3.452975e-02  3.624559e-01  8.964879e-01
5.969388e+00  5.425483e-01  7.944933e-01  5.976300e-02  -5.417941e-02  5.957853e-02  -5.407242e-02  5.369980e-01  7.983316e-01
6.071429e+00  5.881877e-01  7.200575e-01  -4.873160e-02  -2.459373e-02  -4.829746e-02  -2.422764e-02  5.867639e-01  7.233336e-01
6.173469e+00  7.686467e-01  6.189966e-01  9.361530e-03  -6.001582e-03  9.502734e-03  -6.029803e-03  7.664569e-01  6.216277e-01
6.275510e+00  8.617074e-01  4.866310e-01  9.707292e-03  -9.378779e-03  9.779176e-03  -9.408965e-03  8.601068e-01  4.892672e-01
6.377551e+00  9.262552e-01  3.528235e-01  7.133578e-03  -9.206689e-03  7.179951e-03  -9.233996e-03  9.251924e-01  3.553619e-01
6.479592e+00  9.681741e-01  2.180722e-01  4.889846e-03  -8.021678e-03  4.923206e-03  -8.046843e-03  9.675511e-01  2.204860e-01
6.581633e+00  9.898766e-01  8.403446e-02  3.289102e-03  -6.595103e-03  3.314680e-03  -6.618897e-03  9.896166e-01  8.631614e-02
6.683673e+00  9.930717e-01  -4.754173e-02  2.254915e-03  -5.210032e-03  2.275423e-03  -5.233067e-03  9.931178e-01  -4.539917e-02
6.785714e+00  9.792322e-01  -1.750157e-01  1.661181e-03  -3.975621e-03  1.678256e-03  -3.998445e-03  9.795391e-01  -1.730246e-01
6.887755e+00  9.497393e-01  -2.968915e-01  1.396438e-03  -2.928530e-03  1.411189e-03  -2.951719e-03  9.502654e-01  -2.950701e-01
6.989796e+00  9.059419e-01  -4.118225e-01  1.374975e-03  -2.072907e-03  1.388232e-03  -2.097152e-03  9.066438e-01  -4.101928e-01
7.091837e+00  8.491849e-01  -5.186093e-01  1.536506e-03  -1.398567e-03  1.548939e-03  -1.424790e-03  8.500138e-01  -5.171934e-01
7.193878e+00  7.808198e-01  -6.161972e-01  1.844584e-03  -8.906111e-04  1.856750e-03  -9.201122e-04  7.817205e-01  -6.150135e-01
7.295918e+00  7.022052e-01  -7.036728e-01  2.287092e-03  -5.361371e-04  2.299432e-03  -5.708506e-04  7.031164e-01  -7.027319e-01
7.397959e+00  6.146974e-01  -7.802567e-01  2.881360e-03  -3.320682e-04  2.894103e-03  -3.750097e-04  6.155545e-01  -7.795583e-01
7.500000e+00  5.196285e-01  -8.452886e-01  3.688705e-03  -3.005857e-04  3.701566e-03  -3.567298e-04  5.203683e-01  -8.448197e-01
