! Generated by EMerge - 2-port S-parameters
! File generated: 2026-03-04 04:52 
! --- Coupled-Line BPF 5000 MHz ---
! Substrate: RO4003C
! h = 0.508 mm
! W50 = 1.1 mm, Lfeed = 5 mm
! L1 = 8.93 mm, S1 = 0.1 mm, W1 = 0.76 mm
! L2 = 8.93 mm, S2 = 0.1 mm, W2 = 1.08 mm
! Run time = 0.89 min
# GHZ S RI R 50
2.500000e+00  -7.860117e-01  -5.773634e-01  -2.152530e-04  2.070695e-04  -2.146789e-04  2.083637e-04  -7.938468e-01  -5.663336e-01
2.602041e+00  -8.468522e-01  -4.823795e-01  -2.213742e-04  2.874341e-04  -2.205800e-04  2.888500e-04  -8.536418e-01  -4.700211e-01
2.704082e+00  -8.970143e-01  -3.795239e-01  -2.117722e-04  3.769758e-04  -2.107125e-04  3.785081e-04  -9.025350e-01  -3.659169e-01
2.806122e+00  -9.353391e-01  -2.698126e-01  -1.828127e-04  4.720009e-04  -1.814347e-04  4.736397e-04  -9.393668e-01  -2.550689e-01
2.908163e+00  -9.607193e-01  -1.544161e-01  -1.315162e-04  5.668822e-04  -1.297581e-04  5.686117e-04  -9.630322e-01  -1.386808e-01
3.010204e+00  -9.721099e-01  -3.466146e-02  -5.634874e-05  6.536395e-04  -5.413764e-05  6.554359e-04  -9.724907e-01  -1.811508e-02
3.112245e+00  -9.685356e-01  8.796387e-02  4.155908e-05  7.215225e-04  4.430957e-05  7.233510e-04  -9.667752e-01  1.051035e-01
3.214286e+00  -9.490969e-01  2.118057e-01  1.565349e-04  7.566752e-04  1.599284e-04  7.584864e-04  -9.449968e-01  2.292809e-01
3.316327e+00  -9.129708e-01  3.350318e-01  2.754650e-04  7.420540e-04  2.796272e-04  7.437780e-04  -9.063460e-01  3.525414e-01
3.418367e+00  -8.594073e-01  4.556120e-01  3.732792e-04  6.579612e-04  3.783643e-04  6.594984e-04  -8.500903e-01  4.728058e-01
3.520408e+00  -7.877201e-01  5.712819e-01  4.058509e-04  4.839580e-04  4.120508e-04  4.851655e-04  -7.755648e-01  5.877534e-01
3.622449e+00  -6.972703e-01  6.794822e-01  2.987191e-04  2.037804e-04  3.062753e-04  2.044496e-04  -6.821587e-01  6.947571e-01
3.724490e+00  -5.874456e-01  7.772546e-01  -7.097083e-05  -1.832428e-04  -6.175116e-05  -1.834233e-04  -5.692975e-01  7.907736e-01
3.826531e+00  -4.576388e-01  8.610650e-01  -9.034128e-04  -6.365495e-04  -8.921366e-04  -6.380563e-04  -4.364299e-01  8.721594e-01
3.928571e+00  -3.072417e-01  9.265033e-01  -2.521822e-03  -1.016971e-03  -2.507989e-03  -1.020556e-03  -2.830350e-01  9.343575e-01
4.030612e+00  -1.356970e-01  9.677593e-01  -5.440413e-03  -9.566300e-04  -5.423402e-03  -9.635222e-04  -1.087040e-01  9.713584e-01
4.132653e+00  5.727305e-02  9.766934e-01  -1.044666e-02  4.430621e-04  -1.042578e-02  4.307777e-04  8.657391e-02  9.747514e-01
4.234694e+00  2.709235e-01  9.411377e-01  -1.861249e-02  5.331344e-03  -1.858719e-02  5.309986e-03  3.015456e-01  9.320156e-01
4.336735e+00  5.012009e-01  8.417345e-01  -3.078154e-02  1.885181e-02  -3.075238e-02  1.881464e-02  5.311495e-01  8.234142e-01
4.438776e+00  7.334960e-01  6.462632e-01  -4.438619e-02  5.319341e-02  -4.435813e-02  5.312798e-02  7.587297e-01  6.166761e-01
4.540816e+00  9.181606e-01  3.030239e-01  -3.785800e-02  1.340805e-01  -3.785232e-02  1.339661e-01  9.307092e-01  2.619765e-01
4.642857e+00  8.916312e-01  -2.284811e-01  9.071107e-02  2.782329e-01  9.062132e-02  2.780596e-01  8.792506e-01  -2.715442e-01
4.744898e+00  3.383976e-01  -6.604126e-01  5.364930e-01  2.170805e-01  5.361890e-01  2.169927e-01  3.065278e-01  -6.756265e-01
4.846939e+00  -2.151581e-01  -3.247631e-01  6.461125e-01  -5.367587e-01  6.458327e-01  -5.365015e-01  -2.225954e-01  -3.209536e-01
4.948980e+00  -1.096796e-01  1.952545e-03  -1.165082e-01  -9.168695e-01  -1.164619e-01  -9.165235e-01  -1.122872e-01  -1.149210e-02
5.051020e+00  6.110273e-02  -1.160418e-01  -8.098716e-01  -4.424270e-01  -8.096166e-01  -4.422798e-01  4.314551e-02  -1.257098e-01
5.153061e+00  -2.362555e-01  -4.161278e-01  -7.019234e-01  3.717527e-01  -7.017270e-01  3.716573e-01  -2.496136e-01  -4.093790e-01
5.255102e+00  -7.649249e-01  -1.104849e-01  -9.521790e-02  5.117961e-01  -9.519133e-02  5.116707e-01  -7.661593e-01  -1.055359e-01
5.357143e+00  -7.828232e-01  4.333656e-01  1.340105e-01  2.694174e-01  1.339790e-01  2.693536e-01  -7.831814e-01  4.330575e-01
5.459184e+00  -5.411200e-01  7.653070e-01  1.417929e-01  1.098091e-01  1.417569e-01  1.097815e-01  -5.428556e-01  7.640620e-01
5.561224e+00  -2.629820e-01  9.179853e-01  1.086016e-01  3.577270e-02  1.085681e-01  3.576054e-02  -2.650513e-01  9.173099e-01
5.663265e+00  -7.575363e-03  9.638459e-01  7.820950e-02  2.775110e-03  7.817491e-02  2.769435e-03  -9.183814e-03  9.637431e-01
5.765306e+00  2.148084e-01  9.445640e-01  5.677913e-02  -1.309240e-02  5.673545e-02  -1.309420e-02  2.139426e-01  9.446867e-01
5.867347e+00  4.055287e-01  8.798349e-01  4.369658e-02  -2.561958e-02  4.362285e-02  -2.561223e-02  4.053551e-01  8.799006e-01
5.969388e+00  5.471149e-01  7.470742e-01  1.684197e-02  -7.515128e-02  1.664317e-02  -7.498024e-02  5.475888e-01  7.476097e-01
6.071429e+00  6.579850e-01  7.291368e-01  -9.611148e-03  9.318778e-03  -9.484594e-03  9.364310e-03  6.596534e-01  7.277485e-01
6.173469e+00  7.799432e-01  6.064243e-01  2.241371e-03  3.062450e-03  2.305258e-03  3.068365e-03  7.814923e-01  6.043915e-01
6.275510e+00  8.658299e-01  4.795893e-01  3.068326e-03  1.382464e-03  3.112777e-03  1.381207e-03  8.672879e-01  4.768888e-01
6.377551e+00  9.277023e-01  3.490824e-01  2.764199e-03  1.220875e-03  2.799528e-03  1.216437e-03  9.289273e-01  3.457332e-01
6.479592e+00  9.684521e-01  2.166779e-01  2.483486e-03  1.548936e-03  2.513568e-03  1.542374e-03  9.692987e-01  2.127431e-01
6.581633e+00  9.897714e-01  8.435406e-02  2.412498e-03  1.998898e-03  2.439178e-03  1.990574e-03  9.901142e-01  7.992644e-02
6.683673e+00  9.930324e-01  -4.601338e-02  2.549118e-03  2.420498e-03  2.573411e-03  2.410521e-03  9.927718e-01  -5.082169e-02
6.785714e+00  9.795020e-01  -1.727034e-01  2.853061e-03  2.750992e-03  2.875581e-03  2.739343e-03  9.785655e-01  -1.777681e-01
6.887755e+00  9.504198e-01  -2.941530e-01  3.283623e-03  2.967314e-03  3.304768e-03  2.953879e-03  9.487618e-01  -2.993433e-01
6.989796e+00  9.070334e-01  -4.089524e-01  3.810400e-03  3.065218e-03  3.830435e-03  3.049792e-03  9.046337e-01  -4.141365e-01
7.091837e+00  8.506123e-01  -5.158410e-01  4.417097e-03  3.048668e-03  4.436202e-03  3.030933e-03  8.474746e-01  -5.208893e-01
7.193878e+00  7.824515e-01  -6.137033e-01  5.104722e-03  2.923006e-03  5.123001e-03  2.902481e-03  7.786015e-01  -6.184925e-01
7.295918e+00  7.038638e-01  -7.015646e-01  5.897449e-03  2.688193e-03  5.914924e-03  2.664146e-03  6.993471e-01  -7.059798e-01
7.397959e+00  6.161626e-01  -7.785808e-01  6.855370e-03  2.327580e-03  6.871923e-03  2.298858e-03  6.110427e-01  -7.825185e-01
7.500000e+00  5.206241e-01  -8.440124e-01  8.103293e-03  1.780867e-03  8.118498e-03  1.745539e-03  5.149812e-01  -8.473817e-01
